<?xml version="1.0"?>
<!-- Time step: 5 | Time: 1.000000000000e+00 -->
<VTKFile type="UnstructuredGrid" version="0.1" byte_order="LittleEndian">
  <UnstructuredGrid>
    <Piece NumberOfPoints="1235" NumberOfCells="2320">
      <Points>
        <DataArray type="Float64" NumberOfComponents="3" format="ascii">
          0.000000000000e+00 -8.000000000000e+02 0.000000000000e+00
          3.000000000000e+02 -8.000000000000e+02 0.000000000000e+00
          3.000000000000e+02 -5.000000000000e+02 0.000000000000e+00
          0.000000000000e+00 -5.000000000000e+02 0.000000000000e+00
          2.000000000000e+02 -6.500000000000e+02 0.000000000000e+00
          1.500000000000e+02 -6.000000000000e+02 0.000000000000e+00
          3.000000000000e+02 -4.600000000000e+02 0.000000000000e+00
          0.000000000000e+00 -4.600000000000e+02 0.000000000000e+00
          1.000000000000e+02 -6.500000000000e+02 0.000000000000e+00
          1.500000000000e+02 -7.000000000000e+02 0.000000000000e+00
          1.500000000000e+01 -8.000000000000e+02 0.000000000000e+00
          3.000000000000e+01 -8.000000000000e+02 0.000000000000e+00
          4.500000000000e+01 -8.000000000000e+02 0.000000000000e+00
          6.000000000000e+01 -8.000000000000e+02 0.000000000000e+00
          7.500000000000e+01 -8.000000000000e+02 0.000000000000e+00
          9.000000000000e+01 -8.000000000000e+02 0.000000000000e+00
          1.050000000000e+02 -8.000000000000e+02 0.000000000000e+00
          1.200000000000e+02 -8.000000000000e+02 0.000000000000e+00
          1.350000000000e+02 -8.000000000000e+02 0.000000000000e+00
          1.500000000000e+02 -8.000000000000e+02 0.000000000000e+00
          1.650000000000e+02 -8.000000000000e+02 0.000000000000e+00
          1.800000000000e+02 -8.000000000000e+02 0.000000000000e+00
          1.950000000000e+02 -8.000000000000e+02 0.000000000000e+00
          2.100000000000e+02 -8.000000000000e+02 0.000000000000e+00
          2.250000000000e+02 -8.000000000000e+02 0.000000000000e+00
          2.400000000000e+02 -8.000000000000e+02 0.000000000000e+00
          2.550000000000e+02 -8.000000000000e+02 0.000000000000e+00
          2.700000000000e+02 -8.000000000000e+02 0.000000000000e+00
          2.850000000000e+02 -8.000000000000e+02 0.000000000000e+00
          3.000000000000e+02 -7.850000000000e+02 0.000000000000e+00
          3.000000000000e+02 -7.700000000000e+02 0.000000000000e+00
          3.000000000000e+02 -7.550000000000e+02 0.000000000000e+00
          3.000000000000e+02 -7.400000000000e+02 0.000000000000e+00
          3.000000000000e+02 -7.250000000000e+02 0.000000000000e+00
          3.000000000000e+02 -7.100000000000e+02 0.000000000000e+00
          3.000000000000e+02 -6.950000000000e+02 0.000000000000e+00
          3.000000000000e+02 -6.800000000000e+02 0.000000000000e+00
          3.000000000000e+02 -6.650000000000e+02 0.000000000000e+00
          3.000000000000e+02 -6.500000000000e+02 0.000000000000e+00
          3.000000000000e+02 -6.350000000000e+02 0.000000000000e+00
          3.000000000000e+02 -6.200000000000e+02 0.000000000000e+00
          3.000000000000e+02 -6.050000000000e+02 0.000000000000e+00
          3.000000000000e+02 -5.900000000000e+02 0.000000000000e+00
          3.000000000000e+02 -5.750000000000e+02 0.000000000000e+00
          3.000000000000e+02 -5.600000000000e+02 0.000000000000e+00
          3.000000000000e+02 -5.450000000000e+02 0.000000000000e+00
          3.000000000000e+02 -5.300000000000e+02 0.000000000000e+00
          3.000000000000e+02 -5.150000000000e+02 0.000000000000e+00
          3.000000000000e+02 -4.866666666700e+02 0.000000000000e+00
          3.000000000000e+02 -4.733333333300e+02 0.000000000000e+00
          2.850000000000e+02 -4.600000000000e+02 0.000000000000e+00
          2.700000000000e+02 -4.600000000000e+02 0.000000000000e+00
          2.550000000000e+02 -4.600000000000e+02 0.000000000000e+00
          2.400000000000e+02 -4.600000000000e+02 0.000000000000e+00
          2.250000000000e+02 -4.600000000000e+02 0.000000000000e+00
          2.100000000000e+02 -4.600000000000e+02 0.000000000000e+00
          1.950000000000e+02 -4.600000000000e+02 0.000000000000e+00
          1.800000000000e+02 -4.600000000000e+02 0.000000000000e+00
          1.650000000000e+02 -4.600000000000e+02 0.000000000000e+00
          1.500000000000e+02 -4.600000000000e+02 0.000000000000e+00
          1.350000000000e+02 -4.600000000000e+02 0.000000000000e+00
          1.200000000000e+02 -4.600000000000e+02 0.000000000000e+00
          1.050000000000e+02 -4.600000000000e+02 0.000000000000e+00
          9.000000000000e+01 -4.600000000000e+02 0.000000000000e+00
          7.500000000000e+01 -4.600000000000e+02 0.000000000000e+00
          6.000000000000e+01 -4.600000000000e+02 0.000000000000e+00
          4.500000000000e+01 -4.600000000000e+02 0.000000000000e+00
          3.000000000000e+01 -4.600000000000e+02 0.000000000000e+00
          1.500000000000e+01 -4.600000000000e+02 0.000000000000e+00
          0.000000000000e+00 -4.733333333300e+02 0.000000000000e+00
          0.000000000000e+00 -4.866666666700e+02 0.000000000000e+00
          0.000000000000e+00 -5.150000000000e+02 0.000000000000e+00
          0.000000000000e+00 -5.300000000000e+02 0.000000000000e+00
          0.000000000000e+00 -5.450000000000e+02 0.000000000000e+00
          0.000000000000e+00 -5.600000000000e+02 0.000000000000e+00
          0.000000000000e+00 -5.750000000000e+02 0.000000000000e+00
          0.000000000000e+00 -5.900000000000e+02 0.000000000000e+00
          0.000000000000e+00 -6.050000000000e+02 0.000000000000e+00
          0.000000000000e+00 -6.200000000000e+02 0.000000000000e+00
          0.000000000000e+00 -6.350000000000e+02 0.000000000000e+00
          0.000000000000e+00 -6.500000000000e+02 0.000000000000e+00
          0.000000000000e+00 -6.650000000000e+02 0.000000000000e+00
          0.000000000000e+00 -6.800000000000e+02 0.000000000000e+00
          0.000000000000e+00 -6.950000000000e+02 0.000000000000e+00
          0.000000000000e+00 -7.100000000000e+02 0.000000000000e+00
          0.000000000000e+00 -7.250000000000e+02 0.000000000000e+00
          0.000000000000e+00 -7.400000000000e+02 0.000000000000e+00
          0.000000000000e+00 -7.550000000000e+02 0.000000000000e+00
          0.000000000000e+00 -7.700000000000e+02 0.000000000000e+00
          0.000000000000e+00 -7.850000000000e+02 0.000000000000e+00
          1.500000000000e+01 -5.000000000000e+02 0.000000000000e+00
          3.000000000000e+01 -5.000000000000e+02 0.000000000000e+00
          4.500000000000e+01 -5.000000000000e+02 0.000000000000e+00
          6.000000000000e+01 -5.000000000000e+02 0.000000000000e+00
          7.500000000000e+01 -5.000000000000e+02 0.000000000000e+00
          9.000000000000e+01 -5.000000000000e+02 0.000000000000e+00
          1.050000000000e+02 -5.000000000000e+02 0.000000000000e+00
          1.200000000000e+02 -5.000000000000e+02 0.000000000000e+00
          1.350000000000e+02 -5.000000000000e+02 0.000000000000e+00
          1.500000000000e+02 -5.000000000000e+02 0.000000000000e+00
          1.650000000000e+02 -5.000000000000e+02 0.000000000000e+00
          1.800000000000e+02 -5.000000000000e+02 0.000000000000e+00
          1.950000000000e+02 -5.000000000000e+02 0.000000000000e+00
          2.100000000000e+02 -5.000000000000e+02 0.000000000000e+00
          2.250000000000e+02 -5.000000000000e+02 0.000000000000e+00
          2.400000000000e+02 -5.000000000000e+02 0.000000000000e+00
          2.550000000000e+02 -5.000000000000e+02 0.000000000000e+00
          2.700000000000e+02 -5.000000000000e+02 0.000000000000e+00
          2.850000000000e+02 -5.000000000000e+02 0.000000000000e+00
          1.549008570200e+02 -6.002407636700e+02 0.000000000000e+00
          1.597545161000e+02 -6.009607359800e+02 0.000000000000e+00
          1.645142338600e+02 -6.021529832100e+02 0.000000000000e+00
          1.691341716200e+02 -6.038060233700e+02 0.000000000000e+00
          1.735698368400e+02 -6.059039367800e+02 0.000000000000e+00
          1.777785116500e+02 -6.084265193800e+02 0.000000000000e+00
          1.817196642100e+02 -6.113494773300e+02 0.000000000000e+00
          1.853553390600e+02 -6.146446609400e+02 0.000000000000e+00
          1.886505226700e+02 -6.182803357900e+02 0.000000000000e+00
          1.915734806200e+02 -6.222214883500e+02 0.000000000000e+00
          1.940960632200e+02 -6.264301631600e+02 0.000000000000e+00
          1.961939766300e+02 -6.308658283800e+02 0.000000000000e+00
          1.978470167900e+02 -6.354857661400e+02 0.000000000000e+00
          1.990392640200e+02 -6.402454839000e+02 0.000000000000e+00
          1.997592363300e+02 -6.450991429800e+02 0.000000000000e+00
          1.997592363300e+02 -6.549008570200e+02 0.000000000000e+00
          1.990392640200e+02 -6.597545161000e+02 0.000000000000e+00
          1.978470167900e+02 -6.645142338600e+02 0.000000000000e+00
          1.961939766300e+02 -6.691341716200e+02 0.000000000000e+00
          1.940960632200e+02 -6.735698368400e+02 0.000000000000e+00
          1.915734806200e+02 -6.777785116500e+02 0.000000000000e+00
          1.886505226700e+02 -6.817196642100e+02 0.000000000000e+00
          1.853553390600e+02 -6.853553390600e+02 0.000000000000e+00
          1.817196642100e+02 -6.886505226700e+02 0.000000000000e+00
          1.777785116500e+02 -6.915734806200e+02 0.000000000000e+00
          1.735698368400e+02 -6.940960632200e+02 0.000000000000e+00
          1.691341716200e+02 -6.961939766300e+02 0.000000000000e+00
          1.645142338600e+02 -6.978470167900e+02 0.000000000000e+00
          1.597545161000e+02 -6.990392640200e+02 0.000000000000e+00
          1.549008570200e+02 -6.997592363300e+02 0.000000000000e+00
          1.450991429800e+02 -6.997592363300e+02 0.000000000000e+00
          1.402454839000e+02 -6.990392640200e+02 0.000000000000e+00
          1.354857661400e+02 -6.978470167900e+02 0.000000000000e+00
          1.308658283800e+02 -6.961939766300e+02 0.000000000000e+00
          1.264301631600e+02 -6.940960632200e+02 0.000000000000e+00
          1.222214883500e+02 -6.915734806200e+02 0.000000000000e+00
          1.182803357900e+02 -6.886505226700e+02 0.000000000000e+00
          1.146446609400e+02 -6.853553390600e+02 0.000000000000e+00
          1.113494773300e+02 -6.817196642100e+02 0.000000000000e+00
          1.084265193800e+02 -6.777785116500e+02 0.000000000000e+00
          1.059039367800e+02 -6.735698368400e+02 0.000000000000e+00
          1.038060233700e+02 -6.691341716200e+02 0.000000000000e+00
          1.021529832100e+02 -6.645142338600e+02 0.000000000000e+00
          1.009607359800e+02 -6.597545161000e+02 0.000000000000e+00
          1.002407636700e+02 -6.549008570200e+02 0.000000000000e+00
          1.002407636700e+02 -6.450991429800e+02 0.000000000000e+00
          1.009607359800e+02 -6.402454839000e+02 0.000000000000e+00
          1.021529832100e+02 -6.354857661400e+02 0.000000000000e+00
          1.038060233700e+02 -6.308658283800e+02 0.000000000000e+00
          1.059039367800e+02 -6.264301631600e+02 0.000000000000e+00
          1.084265193800e+02 -6.222214883500e+02 0.000000000000e+00
          1.113494773300e+02 -6.182803357900e+02 0.000000000000e+00
          1.146446609400e+02 -6.146446609400e+02 0.000000000000e+00
          1.182803357900e+02 -6.113494773300e+02 0.000000000000e+00
          1.222214883500e+02 -6.084265193800e+02 0.000000000000e+00
          1.264301631600e+02 -6.059039367800e+02 0.000000000000e+00
          1.308658283800e+02 -6.038060233700e+02 0.000000000000e+00
          1.354857661400e+02 -6.021529832100e+02 0.000000000000e+00
          1.402454839000e+02 -6.009607359800e+02 0.000000000000e+00
          1.450991429800e+02 -6.002407636700e+02 0.000000000000e+00
          6.483362310500e+01 -5.727568277400e+02 0.000000000000e+00
          2.351663769000e+02 -7.272431722600e+02 0.000000000000e+00
          7.263459336900e+01 -7.353993908000e+02 0.000000000000e+00
          2.273654066300e+02 -5.646006092000e+02 0.000000000000e+00
          6.137777804800e+01 -6.176052106700e+02 0.000000000000e+00
          5.441766961000e+01 -6.638507802500e+02 0.000000000000e+00
          2.386222219500e+02 -6.823947893300e+02 0.000000000000e+00
          2.455823303900e+02 -6.361492197500e+02 0.000000000000e+00
          1.093136897600e+02 -5.639760246100e+02 0.000000000000e+00
          1.558664702300e+02 -5.535988951000e+02 0.000000000000e+00
          1.906863102400e+02 -7.360239753900e+02 0.000000000000e+00
          1.441335297700e+02 -7.464011049000e+02 0.000000000000e+00
          2.237533952300e+02 -6.053544853900e+02 0.000000000000e+00
          7.624660476900e+01 -6.946455146100e+02 0.000000000000e+00
          1.138724382000e+02 -7.282739019300e+02 0.000000000000e+00
          1.861275618000e+02 -5.717260980700e+02 0.000000000000e+00
          8.879133592400e+01 -5.952812161700e+02 0.000000000000e+00
          2.112086640800e+02 -7.047187838300e+02 0.000000000000e+00
          9.895487772700e+01 -7.063196135200e+02 0.000000000000e+00
          2.010451222700e+02 -5.936803864800e+02 0.000000000000e+00
          7.423907766200e+01 -6.458781007500e+02 0.000000000000e+00
          2.257609223400e+02 -6.541218992500e+02 0.000000000000e+00
          1.615186553600e+02 -7.250231400900e+02 0.000000000000e+00
          1.384813446400e+02 -5.749768599100e+02 0.000000000000e+00
          7.878688649500e+01 -6.678246368400e+02 0.000000000000e+00
          2.212131135100e+02 -6.321753631600e+02 0.000000000000e+00
          8.165467525000e+01 -6.254984963900e+02 0.000000000000e+00
          2.183453247500e+02 -6.745015036100e+02 0.000000000000e+00
          1.392467648700e+02 -7.226109536300e+02 0.000000000000e+00
          1.607532351300e+02 -5.773890463700e+02 0.000000000000e+00
          1.807554407600e+02 -7.150269160200e+02 0.000000000000e+00
          1.192445592400e+02 -5.849730839800e+02 0.000000000000e+00
          3.982571950500e+01 -7.115676091700e+02 0.000000000000e+00
          2.601742805000e+02 -5.884323908300e+02 0.000000000000e+00
          8.004233190900e+01 -5.390549922200e+02 0.000000000000e+00
          2.199576680900e+02 -7.609450077800e+02 0.000000000000e+00
          9.793019827500e+01 -7.617030237700e+02 0.000000000000e+00
          2.020698017300e+02 -5.382969762300e+02 0.000000000000e+00
          4.163611727000e+01 -5.403884484000e+02 0.000000000000e+00
          2.583638827300e+02 -7.594511551600e+02 0.000000000000e+00
          3.388192219200e+01 -5.924015483900e+02 0.000000000000e+00
          2.661180778100e+02 -7.075984516100e+02 0.000000000000e+00
          3.961017177900e+01 -7.509063788900e+02 0.000000000000e+00
          2.603898282200e+02 -5.490936211100e+02 0.000000000000e+00
          1.274259920700e+02 -5.350002166200e+02 0.000000000000e+00
          1.725740079300e+02 -7.649997833800e+02 0.000000000000e+00
          2.084632422300e+02 -6.143931291200e+02 0.000000000000e+00
          9.153675777000e+01 -6.856068708800e+02 0.000000000000e+00
          1.207949515100e+02 -7.117488869700e+02 0.000000000000e+00
          1.792050484900e+02 -5.882511130300e+02 0.000000000000e+00
          3.346460975700e+01 -6.380262278900e+02 0.000000000000e+00
          2.665353902400e+02 -6.619737721100e+02 0.000000000000e+00
          1.050744974900e+02 -6.001967669700e+02 0.000000000000e+00
          1.949255025100e+02 -6.998032330300e+02 0.000000000000e+00
          9.450428329700e+01 -6.135747873300e+02 0.000000000000e+00
          2.054957167000e+02 -6.864252126700e+02 0.000000000000e+00
          6.656058237300e+01 -7.668819386400e+02 0.000000000000e+00
          2.334394176300e+02 -5.331180613600e+02 0.000000000000e+00
          5.049999002000e+01 -6.893854974700e+02 0.000000000000e+00
          2.495000099800e+02 -6.106145025300e+02 0.000000000000e+00
          6.617362850300e+01 -5.963341224600e+02 0.000000000000e+00
          2.338263715000e+02 -7.036658775400e+02 0.000000000000e+00
          8.845507249300e+01 -5.725315154400e+02 0.000000000000e+00
          2.115449275100e+02 -7.274684845600e+02 0.000000000000e+00
          1.021545605200e+02 -6.931329543700e+02 0.000000000000e+00
          1.978454394800e+02 -6.068670456300e+02 0.000000000000e+00
          1.202319207300e+02 -7.533966620600e+02 0.000000000000e+00
          1.797680792700e+02 -5.466033379400e+02 0.000000000000e+00
          1.020745531500e+02 -5.834877670600e+02 0.000000000000e+00
          1.979254468500e+02 -7.165122329400e+02 0.000000000000e+00
          2.468215099200e+01 -6.729730861600e+02 0.000000000000e+00
          2.753178490100e+02 -6.270269138400e+02 0.000000000000e+00
          8.686072657100e+01 -6.406341735200e+02 0.000000000000e+00
          2.131392734300e+02 -6.593658264800e+02 0.000000000000e+00
          1.655094584900e+02 -7.119172290400e+02 0.000000000000e+00
          1.344905415100e+02 -5.880827709600e+02 0.000000000000e+00
          8.053819095400e+01 -7.156944395600e+02 0.000000000000e+00
          2.194618090500e+02 -5.843055604400e+02 0.000000000000e+00
          1.387360602500e+02 -7.761247531400e+02 0.000000000000e+00
          1.612639397500e+02 -5.238752468600e+02 0.000000000000e+00
          8.800092295400e+01 -6.517076571200e+02 0.000000000000e+00
          2.119990770500e+02 -6.482923428800e+02 0.000000000000e+00
          1.543775379500e+02 -7.118679142100e+02 0.000000000000e+00
          1.456224620500e+02 -5.881320857900e+02 0.000000000000e+00
          1.873448334600e+02 -6.014723363100e+02 0.000000000000e+00
          1.126551665400e+02 -6.985276636900e+02 0.000000000000e+00
          1.281602421000e+02 -5.554492841500e+02 0.000000000000e+00
          1.718397579000e+02 -7.445507158500e+02 0.000000000000e+00
          7.677889769700e+01 -6.091616004400e+02 0.000000000000e+00
          2.232211023000e+02 -6.908383995600e+02 0.000000000000e+00
          5.450989718600e+01 -6.381453382000e+02 0.000000000000e+00
          2.454901028100e+02 -6.618546618000e+02 0.000000000000e+00
          3.910279851900e+01 -5.653093706500e+02 0.000000000000e+00
          2.608972014800e+02 -7.346906293500e+02 0.000000000000e+00
          9.475512065900e+01 -7.398290999400e+02 0.000000000000e+00
          2.052448793400e+02 -5.601709000600e+02 0.000000000000e+00
          1.183738071600e+02 -5.969210132400e+02 0.000000000000e+00
          1.816261928400e+02 -7.030789867600e+02 0.000000000000e+00
          9.131085666100e+01 -6.709121881200e+02 0.000000000000e+00
          2.086891433400e+02 -6.290878118800e+02 0.000000000000e+00
          1.349359491900e+02 -7.104418243900e+02 0.000000000000e+00
          1.650640508100e+02 -5.895581756100e+02 0.000000000000e+00
          1.037921511900e+02 -5.407064178600e+02 0.000000000000e+00
          1.962078488100e+02 -7.592935821400e+02 0.000000000000e+00
          6.039641767200e+01 -7.080374039900e+02 0.000000000000e+00
          2.396035823300e+02 -5.919625960100e+02 0.000000000000e+00
          6.525503610600e+01 -6.787548808100e+02 0.000000000000e+00
          2.347449638900e+02 -6.212451191900e+02 0.000000000000e+00
          3.762034837200e+01 -6.154931119400e+02 0.000000000000e+00
          2.623796516300e+02 -6.845068880600e+02 0.000000000000e+00
          1.293260908800e+02 -7.362858654600e+02 0.000000000000e+00
          1.706739091200e+02 -5.637141345400e+02 0.000000000000e+00
          9.551795217400e+01 -6.250790967000e+02 0.000000000000e+00
          2.044820478300e+02 -6.749209033000e+02 0.000000000000e+00
          9.608077941400e+01 -7.238426741200e+02 0.000000000000e+00
          2.039192205900e+02 -5.761573258800e+02 0.000000000000e+00
          6.220251723400e+01 -5.500298341100e+02 0.000000000000e+00
          5.976297202000e+01 -5.249708659600e+02 0.000000000000e+00
          2.377974827700e+02 -7.499701658900e+02 0.000000000000e+00
          2.402370279800e+02 -7.750291340400e+02 0.000000000000e+00
          4.938335298400e+01 -7.314918457800e+02 0.000000000000e+00
          2.506166470200e+02 -5.685081542200e+02 0.000000000000e+00
          1.251366717200e+02 -5.701628837700e+02 0.000000000000e+00
          1.748633282800e+02 -7.298371162300e+02 0.000000000000e+00
          1.171132037300e+02 -7.740846457400e+02 0.000000000000e+00
          1.828867962700e+02 -5.259153542600e+02 0.000000000000e+00
          6.839758078700e+01 -6.326360392700e+02 0.000000000000e+00
          2.316024192100e+02 -6.673639607300e+02 0.000000000000e+00
          2.481798642000e+01 -7.345666089300e+02 0.000000000000e+00
          2.751820135800e+02 -5.654333910700e+02 0.000000000000e+00
          2.473836938300e+01 -7.750287352000e+02 0.000000000000e+00
          2.752616306200e+02 -5.249712648000e+02 0.000000000000e+00
          2.966940380000e+01 -6.939026928700e+02 0.000000000000e+00
          2.703305962000e+02 -6.060973071300e+02 0.000000000000e+00
          7.702312401300e+01 -5.838576150400e+02 0.000000000000e+00
          2.229768759900e+02 -7.161423849600e+02 0.000000000000e+00
          1.060212765800e+02 -6.101400085300e+02 0.000000000000e+00
          1.939787234200e+02 -6.898599914700e+02 0.000000000000e+00
          6.822883611200e+01 -6.594954706000e+02 0.000000000000e+00
          2.317711638900e+02 -6.405045294000e+02 0.000000000000e+00
          1.478702241600e+02 -7.329535577500e+02 0.000000000000e+00
          1.521297758400e+02 -5.670464422500e+02 0.000000000000e+00
          8.840800874300e+01 -6.981287351700e+02 0.000000000000e+00
          2.115919912600e+02 -6.018712648300e+02 0.000000000000e+00
          5.110279633400e+01 -6.032467047600e+02 0.000000000000e+00
          2.488972036700e+02 -6.967532952400e+02 0.000000000000e+00
          9.401470006400e+01 -5.554578139000e+02 0.000000000000e+00
          2.059852999400e+02 -7.445421861000e+02 0.000000000000e+00
          1.081410516500e+02 -7.158489269700e+02 0.000000000000e+00
          1.918589483500e+02 -5.841510730300e+02 0.000000000000e+00
          7.890740020800e+01 -6.806804051500e+02 0.000000000000e+00
          2.210925997900e+02 -6.193195948500e+02 0.000000000000e+00
          8.067431420400e+01 -7.524325212700e+02 0.000000000000e+00
          2.193256858000e+02 -5.475674787300e+02 0.000000000000e+00
          9.512056091000e+01 -5.212632583200e+02 0.000000000000e+00
          2.048794390900e+02 -7.787367416800e+02 0.000000000000e+00
          2.011522940500e+02 -6.201245983300e+02 0.000000000000e+00
          9.884770595500e+01 -6.798754016700e+02 0.000000000000e+00
          1.752313429100e+02 -5.965421510700e+02 0.000000000000e+00
          1.247686570900e+02 -7.034578489300e+02 0.000000000000e+00
          3.892645468600e+01 -6.559634622700e+02 0.000000000000e+00
          2.610735453100e+02 -6.440365377300e+02 0.000000000000e+00
          5.168173372400e+01 -5.850393318700e+02 0.000000000000e+00
          2.483182662800e+02 -7.149606681300e+02 0.000000000000e+00
          1.543410586900e+02 -7.616201666300e+02 0.000000000000e+00
          1.456589413100e+02 -5.383798333700e+02 0.000000000000e+00
          1.266688752800e+02 -7.222387477200e+02 0.000000000000e+00
          1.733311247200e+02 -5.777612522800e+02 0.000000000000e+00
          2.260109718500e+01 -5.249004835900e+02 0.000000000000e+00
          2.773989028100e+02 -7.750995164100e+02 0.000000000000e+00
          1.275879882400e+02 -5.947709438400e+02 0.000000000000e+00
          1.724120117600e+02 -7.052290561600e+02 0.000000000000e+00
          9.311163388000e+01 -6.333420997400e+02 0.000000000000e+00
          2.068883661200e+02 -6.666579002600e+02 0.000000000000e+00
          2.146819121100e+01 -5.528163200500e+02 0.000000000000e+00
          2.785318087900e+02 -7.471836799500e+02 0.000000000000e+00
          8.361464229200e+01 -7.792661261200e+02 0.000000000000e+00
          2.163853577100e+02 -5.207338738800e+02 0.000000000000e+00
          7.806709675800e+01 -5.577922198400e+02 0.000000000000e+00
          2.219329032400e+02 -7.422077801600e+02 0.000000000000e+00
          6.036568470700e+01 -7.482215834100e+02 0.000000000000e+00
          2.396343152900e+02 -5.517784165900e+02 0.000000000000e+00
          2.102251806900e+01 -5.772099271700e+02 0.000000000000e+00
          2.789774819300e+02 -7.227900728300e+02 0.000000000000e+00
          9.181783504900e+01 -6.615021409900e+02 0.000000000000e+00
          2.081821649500e+02 -6.384978590100e+02 0.000000000000e+00
          1.442560943900e+02 -7.090294088900e+02 0.000000000000e+00
          1.557439056100e+02 -5.909705911100e+02 0.000000000000e+00
          4.748360909700e+01 -7.781800842900e+02 0.000000000000e+00
          2.525163909000e+02 -5.218199157100e+02 0.000000000000e+00
          2.008556209100e+01 -6.056739813500e+02 0.000000000000e+00
          2.799144379100e+02 -6.943260186500e+02 0.000000000000e+00
          1.095742286100e+02 -5.911817816900e+02 0.000000000000e+00
          1.904257713900e+02 -7.088182183100e+02 0.000000000000e+00
          1.130506270600e+02 -6.048142520600e+02 0.000000000000e+00
          1.869493729400e+02 -6.951857479400e+02 0.000000000000e+00
          1.387001793700e+02 -5.190080470400e+02 0.000000000000e+00
          1.612998206300e+02 -7.809919529600e+02 0.000000000000e+00
          1.992562253500e+01 -7.113345668000e+02 0.000000000000e+00
          2.800743774700e+02 -5.886654332000e+02 0.000000000000e+00
          1.917299889600e+01 -6.245536365800e+02 0.000000000000e+00
          2.808270011000e+02 -6.754463634200e+02 0.000000000000e+00
          1.092105288200e+02 -7.429882533000e+02 0.000000000000e+00
          1.907894711800e+02 -5.570117467000e+02 0.000000000000e+00
          1.910393706900e+01 -6.526594108400e+02 0.000000000000e+00
          2.808960629300e+02 -6.473405891600e+02 0.000000000000e+00
          9.619323611400e+01 -6.031949570700e+02 0.000000000000e+00
          2.038067638900e+02 -6.968050429300e+02 0.000000000000e+00
          6.147117055300e+01 -6.498517769200e+02 0.000000000000e+00
          2.385288294500e+02 -6.501482230800e+02 0.000000000000e+00
          4.318794552900e+01 -6.752499988900e+02 0.000000000000e+00
          2.568120544700e+02 -6.247500011100e+02 0.000000000000e+00
          1.600478314600e+02 -7.382342992200e+02 0.000000000000e+00
          1.399521685400e+02 -5.617657007800e+02 0.000000000000e+00
          1.110529479800e+02 -5.760931037200e+02 0.000000000000e+00
          1.889470520200e+02 -7.239068962800e+02 0.000000000000e+00
          6.770077604600e+01 -7.225984269500e+02 0.000000000000e+00
          2.322992239500e+02 -5.774015730500e+02 0.000000000000e+00
          1.007454355800e+02 -6.173210771800e+02 0.000000000000e+00
          1.992545644200e+02 -6.826789228200e+02 0.000000000000e+00
          1.149672271400e+02 -5.189122556500e+02 0.000000000000e+00
          1.850327728600e+02 -7.810877443500e+02 0.000000000000e+00
          7.203348375000e+01 -6.199072982400e+02 0.000000000000e+00
          2.279665162500e+02 -6.800927017600e+02 0.000000000000e+00
          1.282761757900e+02 -5.796218053200e+02 0.000000000000e+00
          1.717238242100e+02 -7.203781946800e+02 0.000000000000e+00
          1.154457263000e+02 -5.509719370300e+02 0.000000000000e+00
          1.845542737000e+02 -7.490280629700e+02 0.000000000000e+00
          9.229317390300e+01 -6.476563738500e+02 0.000000000000e+00
          2.077068261000e+02 -6.523436261500e+02 0.000000000000e+00
          1.113582084800e+02 -6.926817051000e+02 0.000000000000e+00
          1.886417915200e+02 -6.073182949000e+02 0.000000000000e+00
          1.580003477900e+02 -7.071974943400e+02 0.000000000000e+00
          1.419996522100e+02 -5.928025056600e+02 0.000000000000e+00
          1.354581249000e+02 -7.584462423400e+02 0.000000000000e+00
          1.645418751000e+02 -5.415537576600e+02 0.000000000000e+00
          7.845457456900e+01 -6.571509742300e+02 0.000000000000e+00
          2.215454254300e+02 -6.428490257700e+02 0.000000000000e+00
          1.865995349200e+01 -7.497212610200e+02 0.000000000000e+00
          2.813400465100e+02 -5.502787389800e+02 0.000000000000e+00
          7.821083687900e+01 -6.351619308800e+02 0.000000000000e+00
          2.217891631200e+02 -6.648380691200e+02 0.000000000000e+00
          4.650335262900e+01 -6.245793177600e+02 0.000000000000e+00
          2.534966473700e+02 -6.754206822400e+02 0.000000000000e+00
          1.498961376700e+02 -7.219018327000e+02 0.000000000000e+00
          1.501038623300e+02 -5.780981673000e+02 0.000000000000e+00
          1.001775033900e+02 -5.716851513200e+02 0.000000000000e+00
          1.998224966100e+02 -7.283148486800e+02 0.000000000000e+00
          9.006575815600e+01 -5.825575316300e+02 0.000000000000e+00
          2.099342418400e+02 -7.174424683700e+02 0.000000000000e+00
          7.478399637800e+01 -5.197210675100e+02 0.000000000000e+00
          2.252160036200e+02 -7.802789324900e+02 0.000000000000e+00
          7.765358352400e+01 -5.975539730000e+02 0.000000000000e+00
          2.223464164800e+02 -7.024460270000e+02 0.000000000000e+00
          8.090384710600e+01 -7.291011594900e+02 0.000000000000e+00
          2.190961528900e+02 -5.708988405100e+02 0.000000000000e+00
          6.312044995100e+01 -6.914816523600e+02 0.000000000000e+00
          2.368795500500e+02 -6.085183476400e+02 0.000000000000e+00
          8.376923886600e+01 -6.163344019600e+02 0.000000000000e+00
          2.162307611300e+02 -6.836655980400e+02 0.000000000000e+00
          1.032432440300e+02 -7.799721862000e+02 0.000000000000e+00
          1.967567559700e+02 -5.200278138000e+02 0.000000000000e+00
          9.897407661500e+01 -5.914883336600e+02 0.000000000000e+00
          2.010259233800e+02 -7.085116663400e+02 0.000000000000e+00
          4.271587227200e+01 -5.186183857800e+02 0.000000000000e+00
          2.572841277300e+02 -7.813816142200e+02 0.000000000000e+00
          4.788385848600e+01 -6.497414176300e+02 0.000000000000e+00
          2.521161415100e+02 -6.502585823700e+02 0.000000000000e+00
          1.046846908000e+02 -6.865821760200e+02 0.000000000000e+00
          1.953153092000e+02 -6.134178239800e+02 0.000000000000e+00
          8.614874045200e+01 -6.060740799100e+02 0.000000000000e+00
          2.138512595500e+02 -6.939259200900e+02 0.000000000000e+00
          6.497134667900e+01 -6.071816438100e+02 0.000000000000e+00
          2.350286533200e+02 -6.928183561900e+02 0.000000000000e+00
          8.585446275700e+01 -7.101909793400e+02 0.000000000000e+00
          2.141455372400e+02 -5.898090206600e+02 0.000000000000e+00
          7.159468457100e+01 -7.043949691200e+02 0.000000000000e+00
          2.284053154300e+02 -5.956050308800e+02 0.000000000000e+00
          5.365007465300e+01 -5.627814092400e+02 0.000000000000e+00
          2.463499253500e+02 -7.372185907600e+02 0.000000000000e+00
          1.597607454700e+02 -7.518718665200e+02 0.000000000000e+00
          1.402392545300e+02 -5.481281334800e+02 0.000000000000e+00
          9.423856343400e+01 -6.398667138200e+02 0.000000000000e+00
          2.057614365700e+02 -6.601332861800e+02 0.000000000000e+00
          4.808906914000e+01 -7.642779497600e+02 0.000000000000e+00
          2.519109308600e+02 -5.357220502400e+02 0.000000000000e+00
          6.588399062800e+01 -7.824784618000e+02 0.000000000000e+00
          2.341160093700e+02 -5.175215382000e+02 0.000000000000e+00
          1.570920332900e+01 -6.854763102900e+02 0.000000000000e+00
          2.842907966700e+02 -6.145236897100e+02 0.000000000000e+00
          6.992700379300e+01 -6.694245420600e+02 0.000000000000e+00
          2.300729962100e+02 -6.305754579400e+02 0.000000000000e+00
          1.203377843000e+02 -6.991626022600e+02 0.000000000000e+00
          1.796622157000e+02 -6.008373977400e+02 0.000000000000e+00
          1.128256012600e+02 -7.091840796500e+02 0.000000000000e+00
          1.871743987400e+02 -5.908159203500e+02 0.000000000000e+00
          1.654994992100e+02 -7.046310626400e+02 0.000000000000e+00
          1.345005007900e+02 -5.953689373600e+02 0.000000000000e+00
          1.998457197100e+02 -6.259150935400e+02 0.000000000000e+00
          1.001542802900e+02 -6.740849064600e+02 0.000000000000e+00
          1.691565677200e+02 -5.980873437200e+02 0.000000000000e+00
          1.308434322800e+02 -7.019126562800e+02 0.000000000000e+00
          1.376695004600e+02 -7.314864723100e+02 0.000000000000e+00
          1.623304995400e+02 -5.685135276900e+02 0.000000000000e+00
          8.908201918700e+01 -6.782088497400e+02 0.000000000000e+00
          2.109179808100e+02 -6.217911502600e+02 0.000000000000e+00
          9.990525355900e+01 -7.326689825600e+02 0.000000000000e+00
          2.000947464400e+02 -5.673310174400e+02 0.000000000000e+00
          4.844477941900e+01 -7.025029813700e+02 0.000000000000e+00
          2.515552205800e+02 -5.974970186300e+02 0.000000000000e+00
          1.274462737900e+02 -7.136723034100e+02 0.000000000000e+00
          1.725537262100e+02 -5.863276965900e+02 0.000000000000e+00
          1.270987065400e+02 -7.860277945300e+02 0.000000000000e+00
          1.729012934600e+02 -5.139722054700e+02 0.000000000000e+00
          8.196205575000e+01 -6.474822159800e+02 0.000000000000e+00
          2.180379442500e+02 -6.525177840200e+02 0.000000000000e+00
          8.233031599000e+01 -6.899136930200e+02 0.000000000000e+00
          2.176696840100e+02 -6.100863069800e+02 0.000000000000e+00
          1.184409831000e+02 -7.223752527800e+02 0.000000000000e+00
          1.815590169000e+02 -5.776247472200e+02 0.000000000000e+00
          1.591748311500e+02 -7.174656654600e+02 0.000000000000e+00
          1.408251688500e+02 -5.825343345400e+02 0.000000000000e+00
          1.049166626000e+02 -7.006473038300e+02 0.000000000000e+00
          1.950833374000e+02 -5.993526961700e+02 0.000000000000e+00
          5.369500455100e+01 -7.223689577400e+02 0.000000000000e+00
          2.463049954500e+02 -5.776310422600e+02 0.000000000000e+00
          5.568909854500e+01 -6.762328849800e+02 0.000000000000e+00
          2.443109014600e+02 -6.237671150200e+02 0.000000000000e+00
          9.467543223100e+01 -6.927227349300e+02 0.000000000000e+00
          2.053245677700e+02 -6.072772650700e+02 0.000000000000e+00
          1.099881357800e+02 -7.542026965600e+02 0.000000000000e+00
          1.900118642200e+02 -5.457973034400e+02 0.000000000000e+00
          6.610486466200e+01 -5.839241673200e+02 0.000000000000e+00
          2.338951353400e+02 -7.160758326800e+02 0.000000000000e+00
          7.603468529900e+01 -5.729541517500e+02 0.000000000000e+00
          2.239653147000e+02 -7.270458482500e+02 0.000000000000e+00
          1.182157216200e+02 -7.375672385200e+02 0.000000000000e+00
          1.817842783800e+02 -5.624327614800e+02 0.000000000000e+00
          1.214547602900e+02 -6.023184572100e+02 0.000000000000e+00
          1.785452397100e+02 -6.976815427900e+02 0.000000000000e+00
          1.268945021900e+02 -5.871492399200e+02 0.000000000000e+00
          1.731054978100e+02 -7.128507600800e+02 0.000000000000e+00
          5.907881260600e+01 -6.280828653700e+02 0.000000000000e+00
          2.409211873900e+02 -6.719171346300e+02 0.000000000000e+00
          3.745650383900e+01 -7.301438276000e+02 0.000000000000e+00
          2.625434961600e+02 -5.698561724000e+02 0.000000000000e+00
          1.346750194800e+02 -7.470056372100e+02 0.000000000000e+00
          1.653249805200e+02 -5.529943627900e+02 0.000000000000e+00
          1.372759816500e+01 -5.379688559300e+02 0.000000000000e+00
          2.862724018300e+02 -7.620311440700e+02 0.000000000000e+00
          8.551039372600e+01 -6.342225683200e+02 0.000000000000e+00
          2.144896062700e+02 -6.657774316800e+02 0.000000000000e+00
          2.050515697100e+02 -6.476586389000e+02 0.000000000000e+00
          9.494843029500e+01 -6.523413611000e+02 0.000000000000e+00
          1.530721266400e+02 -7.050134038900e+02 0.000000000000e+00
          1.469278733600e+02 -5.949865961100e+02 0.000000000000e+00
          1.113601811600e+02 -5.981098417800e+02 0.000000000000e+00
          1.886398188400e+02 -7.018901582200e+02 0.000000000000e+00
          1.194094668300e+02 -5.603322582700e+02 0.000000000000e+00
          1.805905331700e+02 -7.396677417300e+02 0.000000000000e+00
          8.886875987500e+01 -6.274515804700e+02 0.000000000000e+00
          2.111312401200e+02 -6.725484195300e+02 0.000000000000e+00
          3.945776156200e+01 -5.827696110500e+02 0.000000000000e+00
          2.603223844000e+02 -7.172303889500e+02 0.000000000000e+00
          2.053359574900e+02 -6.236285866700e+02 0.000000000000e+00
          9.466404251100e+01 -6.763714133300e+02 0.000000000000e+00
          8.278520352700e+01 -7.400722993700e+02 0.000000000000e+00
          2.172147964700e+02 -5.599277006300e+02 0.000000000000e+00
          1.709448163200e+02 -5.923649318500e+02 0.000000000000e+00
          1.290551836800e+02 -7.076350681500e+02 0.000000000000e+00
          1.518455459000e+02 -5.146250094700e+02 0.000000000000e+00
          1.481544541000e+02 -7.853749905300e+02 0.000000000000e+00
          1.485296559300e+01 -6.648767386400e+02 0.000000000000e+00
          2.851470344100e+02 -6.351232613600e+02 0.000000000000e+00
          8.561757000000e+01 -7.645779071800e+02 0.000000000000e+00
          2.143824300000e+02 -5.354220928200e+02 0.000000000000e+00
          2.210876262100e+01 -5.917189992500e+02 0.000000000000e+00
          2.778912373800e+02 -7.082810007500e+02 0.000000000000e+00
          6.503406330800e+01 -6.416710503500e+02 0.000000000000e+00
          2.349659366900e+02 -6.583289496500e+02 0.000000000000e+00
          7.148692832900e+01 -6.862717299700e+02 0.000000000000e+00
          2.285130716700e+02 -6.137282700300e+02 0.000000000000e+00
          6.731689464300e+01 -5.383804502900e+02 0.000000000000e+00
          2.326831053600e+02 -7.616195497100e+02 0.000000000000e+00
          9.590280012500e+01 -6.663128834400e+02 0.000000000000e+00
          2.040971998700e+02 -6.336871165600e+02 0.000000000000e+00
          1.337553782000e+02 -5.676138177200e+02 0.000000000000e+00
          1.662446218000e+02 -7.323861822800e+02 0.000000000000e+00
          1.390678547400e+02 -7.054348960500e+02 0.000000000000e+00
          1.609321452600e+02 -5.945651039500e+02 0.000000000000e+00
          9.855161419000e+01 -6.859185065200e+02 0.000000000000e+00
          2.014483858100e+02 -6.140814934800e+02 0.000000000000e+00
          1.817799632700e+02 -5.952470666300e+02 0.000000000000e+00
          1.182200367300e+02 -7.047529333700e+02 0.000000000000e+00
          9.781331300000e+01 -6.296657001400e+02 0.000000000000e+00
          2.021866870000e+02 -6.703342998600e+02 0.000000000000e+00
          1.255878583400e+02 -7.628568777600e+02 0.000000000000e+00
          1.744121416600e+02 -5.371431222400e+02 0.000000000000e+00
          4.998595648800e+01 -6.145095192500e+02 0.000000000000e+00
          2.500140435100e+02 -6.854904807500e+02 0.000000000000e+00
          1.140493495500e+02 -5.320013992100e+02 0.000000000000e+00
          1.859506504500e+02 -7.679986007900e+02 0.000000000000e+00
          8.210299442900e+01 -7.022767634800e+02 0.000000000000e+00
          2.178970055700e+02 -5.977232365200e+02 0.000000000000e+00
          9.893737103500e+01 -6.087097485500e+02 0.000000000000e+00
          2.010626289600e+02 -6.912902514500e+02 0.000000000000e+00
          1.267181710400e+02 -6.004395201600e+02 0.000000000000e+00
          1.732818289600e+02 -6.995604798400e+02 0.000000000000e+00
          4.208727548600e+01 -5.542344986700e+02 0.000000000000e+00
          2.579127245100e+02 -7.457655013300e+02 0.000000000000e+00
          9.959363778000e+01 -7.152706958800e+02 0.000000000000e+00
          2.004063622200e+02 -5.847293041200e+02 0.000000000000e+00
          1.053326125100e+02 -5.533742481500e+02 0.000000000000e+00
          1.946673874900e+02 -7.466257518500e+02 0.000000000000e+00
          9.205859362600e+01 -5.433297127100e+02 0.000000000000e+00
          2.079414063700e+02 -7.566702872900e+02 0.000000000000e+00
          9.058784454400e+01 -7.546342097500e+02 0.000000000000e+00
          2.094121554600e+02 -5.453657902500e+02 0.000000000000e+00
          8.546093229400e+01 -6.586126273200e+02 0.000000000000e+00
          2.145390677100e+02 -6.413873726800e+02 0.000000000000e+00
          1.242189681700e+01 -7.617279116100e+02 0.000000000000e+00
          2.875781031800e+02 -5.382720883900e+02 0.000000000000e+00
          6.457181087500e+01 -5.609918283500e+02 0.000000000000e+00
          2.354281891200e+02 -7.390081716500e+02 0.000000000000e+00
          1.477547796900e+02 -7.150724795600e+02 0.000000000000e+00
          1.522452203100e+02 -5.849275204400e+02 0.000000000000e+00
          1.475290697700e+01 -6.357689370100e+02 0.000000000000e+00
          2.852470930200e+02 -6.642310629900e+02 0.000000000000e+00
          1.218294256100e+02 -5.920223434800e+02 0.000000000000e+00
          1.781705743900e+02 -7.079776565200e+02 0.000000000000e+00
          3.985851249100e+01 -6.850476781300e+02 0.000000000000e+00
          2.601414875100e+02 -6.149523218700e+02 0.000000000000e+00
          5.479667487500e+01 -5.387333155700e+02 0.000000000000e+00
          2.452033251300e+02 -7.612666844300e+02 0.000000000000e+00
          6.207610633000e+01 -7.301805998600e+02 0.000000000000e+00
          2.379238936700e+02 -5.698194001400e+02 0.000000000000e+00
          1.008840951600e+02 -6.228356841700e+02 0.000000000000e+00
          1.991159048400e+02 -6.771643158300e+02 0.000000000000e+00
          3.638174168900e+01 -7.647632484200e+02 0.000000000000e+00
          2.636182583100e+02 -5.352367515800e+02 0.000000000000e+00
          1.305136197800e+02 -5.465997152100e+02 0.000000000000e+00
          1.694863802200e+02 -7.534002847900e+02 0.000000000000e+00
          1.053400403500e+02 -7.246386931900e+02 0.000000000000e+00
          1.946599596500e+02 -5.753613068100e+02 0.000000000000e+00
          1.876183666900e+02 -5.116071750000e+02 0.000000000000e+00
          1.123816333100e+02 -7.883928250000e+02 0.000000000000e+00
          3.477449235000e+01 -7.847657376800e+02 0.000000000000e+00
          2.652255076500e+02 -5.152342623200e+02 0.000000000000e+00
          8.996935585100e+01 -6.196291488200e+02 0.000000000000e+00
          2.100306441500e+02 -6.803708511800e+02 0.000000000000e+00
          8.950992820500e+01 -7.175917904500e+02 0.000000000000e+00
          2.104900718000e+02 -5.824082095500e+02 0.000000000000e+00
          2.848248299500e+02 -5.151751700500e+02 0.000000000000e+00
          1.517517005000e+01 -7.848248299500e+02 0.000000000000e+00
          8.672384013400e+01 -6.660158097800e+02 0.000000000000e+00
          2.132761598700e+02 -6.339841902200e+02 0.000000000000e+00
          1.678818487600e+01 -6.981417076600e+02 0.000000000000e+00
          2.832118151200e+02 -6.018582923400e+02 0.000000000000e+00
          1.107413714500e+02 -5.839735298000e+02 0.000000000000e+00
          1.892586285500e+02 -7.160264702000e+02 0.000000000000e+00
          1.402617986200e+02 -7.145403554600e+02 0.000000000000e+00
          1.597382013800e+02 -5.854596445400e+02 0.000000000000e+00
          1.214507243800e+02 -5.778021953400e+02 0.000000000000e+00
          1.785492756200e+02 -7.221978046600e+02 0.000000000000e+00
          4.457493686700e+01 -6.350184550300e+02 0.000000000000e+00
          3.697848138900e+01 -6.266663226700e+02 0.000000000000e+00
          2.554250631300e+02 -6.649815449700e+02 0.000000000000e+00
          2.630215186100e+02 -6.733336773300e+02 0.000000000000e+00
          3.911036073300e+01 -6.050578843500e+02 0.000000000000e+00
          2.608896392700e+02 -6.949421156500e+02 0.000000000000e+00
          1.497704045300e+01 -5.637634527600e+02 0.000000000000e+00
          2.850229595500e+02 -7.362365472400e+02 0.000000000000e+00
          1.111638240400e+02 -6.096864693800e+02 0.000000000000e+00
          1.888361759600e+02 -6.903135306200e+02 0.000000000000e+00
          9.614017758100e+01 -6.577833303000e+02 0.000000000000e+00
          2.038598224200e+02 -6.422166697000e+02 0.000000000000e+00
          1.475343703400e+02 -7.043629439300e+02 0.000000000000e+00
          1.524656296600e+02 -5.956370560700e+02 0.000000000000e+00
          5.415273620500e+01 -5.743905031000e+02 0.000000000000e+00
          2.458472637900e+02 -7.256094969000e+02 0.000000000000e+00
          7.503455540300e+01 -6.282138040500e+02 0.000000000000e+00
          2.249654446000e+02 -6.717861959500e+02 0.000000000000e+00
          1.453359511500e+02 -7.562810114300e+02 0.000000000000e+00
          1.546640488500e+02 -5.437189885700e+02 0.000000000000e+00
          1.276516694800e+02 -5.111550001200e+02 0.000000000000e+00
          1.723483305200e+02 -7.888449998800e+02 0.000000000000e+00
          4.402666309500e+01 -6.647010189200e+02 0.000000000000e+00
          2.559733369000e+02 -6.352989810800e+02 0.000000000000e+00
          4.924509688100e+01 -7.438437417500e+02 0.000000000000e+00
          2.507549031200e+02 -5.561562582500e+02 0.000000000000e+00
          5.588063306100e+01 -5.952341318300e+02 0.000000000000e+00
          2.441193669400e+02 -7.047658681700e+02 0.000000000000e+00
          1.062067493900e+02 -6.164635858400e+02 0.000000000000e+00
          1.937932506100e+02 -6.835364141600e+02 0.000000000000e+00
          6.639900098900e+01 -5.109536531500e+02 0.000000000000e+00
          2.336009990100e+02 -7.890463468500e+02 0.000000000000e+00
          1.174141855200e+02 -6.936375252800e+02 0.000000000000e+00
          1.825858144800e+02 -6.063624747200e+02 0.000000000000e+00
          1.178139460900e+02 -6.062775151300e+02 0.000000000000e+00
          1.821860539100e+02 -6.937224848700e+02 0.000000000000e+00
          9.698263379800e+01 -6.991057956600e+02 0.000000000000e+00
          2.030173662000e+02 -6.008942043400e+02 0.000000000000e+00
          7.072953065200e+01 -7.460630776000e+02 0.000000000000e+00
          2.292704693500e+02 -5.539369224000e+02 0.000000000000e+00
          3.366267249500e+01 -7.388960561900e+02 0.000000000000e+00
          2.663373275000e+02 -5.611039438100e+02 0.000000000000e+00
          7.376904044900e+01 -5.470562454900e+02 0.000000000000e+00
          2.262309595500e+02 -7.529437545100e+02 0.000000000000e+00
          8.678579763100e+01 -5.618799732600e+02 0.000000000000e+00
          2.132142023700e+02 -7.381200267400e+02 0.000000000000e+00
          2.642496482600e+01 -6.605563812400e+02 0.000000000000e+00
          2.735750351700e+02 -6.394436187600e+02 0.000000000000e+00
          5.939687150400e+01 -6.573118504500e+02 0.000000000000e+00
          2.406031285000e+02 -6.426881495500e+02 0.000000000000e+00
          1.100985136100e+02 -6.869553349300e+02 0.000000000000e+00
          1.899014863900e+02 -6.130446650700e+02 0.000000000000e+00
          9.065975821500e+01 -7.316938210900e+02 0.000000000000e+00
          2.093402417900e+02 -5.683061789100e+02 0.000000000000e+00
          1.491615962500e+02 -5.260011278000e+02 0.000000000000e+00
          1.508384037500e+02 -7.739988722000e+02 0.000000000000e+00
          8.440478756400e+01 -5.507859709700e+02 0.000000000000e+00
          2.155952124400e+02 -7.492140290300e+02 0.000000000000e+00
          8.297391148100e+01 -5.900312801900e+02 0.000000000000e+00
          2.170260885200e+02 -7.099687198100e+02 0.000000000000e+00
          1.218074201700e+02 -7.295714241400e+02 0.000000000000e+00
          1.781925798300e+02 -5.704285758600e+02 0.000000000000e+00
          1.001738459200e+02 -7.486818790300e+02 0.000000000000e+00
          1.998261540800e+02 -5.513181209700e+02 0.000000000000e+00
          1.511428538600e+02 -7.409283544600e+02 0.000000000000e+00
          1.488571461400e+02 -5.590716455400e+02 0.000000000000e+00
          2.648245581700e+01 -5.654886167900e+02 0.000000000000e+00
          2.735175441800e+02 -7.345113832100e+02 0.000000000000e+00
          1.390188623700e+01 -7.203132307000e+02 0.000000000000e+00
          2.860981137600e+02 -5.794586769300e+02 0.000000000000e+00
          1.057142708300e+02 -7.085624266700e+02 0.000000000000e+00
          1.942857291700e+02 -5.914375733300e+02 0.000000000000e+00
          6.009392321800e+01 -6.701396127400e+02 0.000000000000e+00
          2.399060767800e+02 -6.298603872600e+02 0.000000000000e+00
          1.012058876900e+02 -5.633229290800e+02 0.000000000000e+00
          1.987941123100e+02 -7.366770709200e+02 0.000000000000e+00
          1.689683490800e+02 -7.006923184100e+02 0.000000000000e+00
          1.310316509200e+02 -5.993076815900e+02 0.000000000000e+00
          5.821303675200e+01 -6.838817941500e+02 0.000000000000e+00
          2.417869632500e+02 -6.161182058500e+02 0.000000000000e+00
          9.640711265700e+01 -5.326874500600e+02 0.000000000000e+00
          2.035928873400e+02 -7.673125499400e+02 0.000000000000e+00
          9.744565162200e+01 -6.368358210300e+02 0.000000000000e+00
          2.025543483800e+02 -6.631641789700e+02 0.000000000000e+00
          6.447956406900e+01 -7.002382843700e+02 0.000000000000e+00
          2.355204359300e+02 -5.997617156300e+02 0.000000000000e+00
          1.430169910300e+02 -7.383367926600e+02 0.000000000000e+00
          1.569830089700e+02 -5.616632073400e+02 0.000000000000e+00
          7.733975898800e+01 -6.741199364300e+02 0.000000000000e+00
          2.226602410100e+02 -6.258800635700e+02 0.000000000000e+00
          7.219403145000e+01 -6.533597297400e+02 0.000000000000e+00
          2.278059685500e+02 -6.466402702600e+02 0.000000000000e+00
          1.262665581600e+02 -7.446224789400e+02 0.000000000000e+00
          1.737334418400e+02 -5.553775210600e+02 0.000000000000e+00
          1.157215871000e+02 -5.914321217400e+02 0.000000000000e+00
          1.842784129000e+02 -7.085678782600e+02 0.000000000000e+00
          1.156498418800e+02 -5.713326826800e+02 0.000000000000e+00
          1.843501581200e+02 -7.286673173200e+02 0.000000000000e+00
          8.408724447600e+01 -5.989618841500e+02 0.000000000000e+00
          2.159127555200e+02 -7.010381158500e+02 0.000000000000e+00
          7.446579674300e+01 -6.628013021600e+02 0.000000000000e+00
          2.255342032600e+02 -6.371986978400e+02 0.000000000000e+00
          7.559999529700e+01 -7.219063422700e+02 0.000000000000e+00
          2.244000047000e+02 -5.780936577300e+02 0.000000000000e+00
          3.739436062600e+01 -7.018327617200e+02 0.000000000000e+00
          2.626056393700e+02 -5.981672382800e+02 0.000000000000e+00
          2.792550225500e+01 -5.388743887900e+02 0.000000000000e+00
          2.720744977500e+02 -7.611256112100e+02 0.000000000000e+00
          1.964168572600e+02 -6.221788064200e+02 0.000000000000e+00
          1.035831427400e+02 -6.778211935800e+02 0.000000000000e+00
          1.740036028200e+02 -6.016139678700e+02 0.000000000000e+00
          1.259963971800e+02 -6.983860321300e+02 0.000000000000e+00
          1.542827668100e+02 -7.277606226500e+02 0.000000000000e+00
          1.457172331900e+02 -5.722393773500e+02 0.000000000000e+00
          1.336180805600e+02 -7.256882554300e+02 0.000000000000e+00
          1.663819194400e+02 -5.743117445700e+02 0.000000000000e+00
          1.203326936800e+01 -6.149328766200e+02 0.000000000000e+00
          2.879667306300e+02 -6.850671233800e+02 0.000000000000e+00
          8.103840457900e+01 -6.412908324200e+02 0.000000000000e+00
          2.189615954200e+02 -6.587091675800e+02 0.000000000000e+00
          1.084630574800e+02 -7.668527974100e+02 0.000000000000e+00
          1.915369425200e+02 -5.331472025900e+02 0.000000000000e+00
          1.445972797700e+02 -7.264484071600e+02 0.000000000000e+00
          1.554027202300e+02 -5.735515928400e+02 0.000000000000e+00
          2.963444462600e+01 -7.187323885100e+02 0.000000000000e+00
          2.703655553700e+02 -5.812676114900e+02 0.000000000000e+00
          4.527708497900e+01 -5.941283837200e+02 0.000000000000e+00
          2.547229150200e+02 -7.058716162800e+02 0.000000000000e+00
          1.344181236400e+02 -5.819911389900e+02 0.000000000000e+00
          1.655818763600e+02 -7.180088610100e+02 0.000000000000e+00
          1.360802047600e+01 -5.136080204800e+02 0.000000000000e+00
          2.863919795200e+02 -7.863919795200e+02 0.000000000000e+00
          6.601155138700e+01 -6.248014577800e+02 0.000000000000e+00
          2.339884486100e+02 -6.751985422200e+02 0.000000000000e+00
          1.185459836600e+01 -7.371706953000e+02 0.000000000000e+00
          2.881454016300e+02 -5.628293047000e+02 0.000000000000e+00
          1.378387594500e+02 -5.304632331500e+02 0.000000000000e+00
          1.621612405500e+02 -7.695367668500e+02 0.000000000000e+00
          3.038495857900e+01 -6.486629207500e+02 0.000000000000e+00
          2.696150414200e+02 -6.513370792500e+02 0.000000000000e+00
          7.241190064800e+01 -6.040353283900e+02 0.000000000000e+00
          2.275880993500e+02 -6.959646716100e+02 0.000000000000e+00
          1.071223344100e+01 -5.983791948500e+02 0.000000000000e+00
          2.892877665600e+02 -7.016208051500e+02 0.000000000000e+00
          9.594210187200e+01 -6.185374677900e+02 0.000000000000e+00
          2.040578981300e+02 -6.814625322100e+02 0.000000000000e+00
          1.203422635000e+02 -5.421011511500e+02 0.000000000000e+00
          1.794557736500e+02 -7.578988488500e+02 0.000000000000e+00
          5.604952670800e+01 -6.973477289000e+02 0.000000000000e+00
          2.439504732900e+02 -6.026522711000e+02 0.000000000000e+00
          5.408392292300e+01 -5.109041561800e+02 0.000000000000e+00
          2.459160770800e+02 -7.890958438200e+02 0.000000000000e+00
          1.157071423200e+02 -7.164183737000e+02 0.000000000000e+00
          1.842928576800e+02 -5.835816263000e+02 0.000000000000e+00
          2.128516182800e+02 -7.863033229300e+02 0.000000000000e+00
          8.714838172400e+01 -5.136966770700e+02 0.000000000000e+00
          9.640025123800e+01 -5.783460394700e+02 0.000000000000e+00
          2.035997487600e+02 -7.216539605300e+02 0.000000000000e+00
          7.880457464800e+01 -6.199501437000e+02 0.000000000000e+00
          2.211954253500e+02 -6.800498563000e+02 0.000000000000e+00
          7.215035551100e+01 -5.904922296200e+02 0.000000000000e+00
          2.278496444900e+02 -7.095077703800e+02 0.000000000000e+00
          1.020975965400e+02 -5.125040105600e+02 0.000000000000e+00
          1.979024034600e+02 -7.874959894400e+02 0.000000000000e+00
          1.336962903800e+02 -7.181987400000e+02 0.000000000000e+00
          1.663037096200e+02 -5.818012600000e+02 0.000000000000e+00
          8.457450194100e+01 -6.720109481200e+02 0.000000000000e+00
          2.154254980600e+02 -6.279890518800e+02 0.000000000000e+00
          8.569986733800e+01 -5.285662323800e+02 0.000000000000e+00
          2.143001326600e+02 -7.714337676200e+02 0.000000000000e+00
          8.294806589200e+01 -5.784204156200e+02 0.000000000000e+00
          2.170519341100e+02 -7.215795843800e+02 0.000000000000e+00
          5.726732598600e+01 -6.099330177000e+02 0.000000000000e+00
          2.427326740100e+02 -6.900669823000e+02 0.000000000000e+00
          5.495742187000e+01 -7.883927369100e+02 0.000000000000e+00
          2.450425781300e+02 -5.116072630900e+02 0.000000000000e+00
          1.088437392100e+01 -5.844789956400e+02 0.000000000000e+00
          2.891156260800e+02 -7.155210043600e+02 0.000000000000e+00
          2.894638766900e+01 -6.829167481000e+02 0.000000000000e+00
          2.710536123300e+02 -6.170832519000e+02 0.000000000000e+00
          7.065278092500e+01 -7.140325348000e+02 0.000000000000e+00
          2.293472190700e+02 -5.859674652000e+02 0.000000000000e+00
          1.046657911000e+02 -5.944779037800e+02 0.000000000000e+00
          1.953342089000e+02 -7.055220962200e+02 0.000000000000e+00
          3.014040448900e+01 -5.125543039200e+02 0.000000000000e+00
          2.698595955100e+02 -7.874456960800e+02 0.000000000000e+00
          6.918878520200e+01 -7.556087733300e+02 0.000000000000e+00
          2.308112148000e+02 -5.443912266700e+02 0.000000000000e+00
          1.075282794800e+02 -6.051091768300e+02 0.000000000000e+00
          1.924717205200e+02 -6.948908231700e+02 0.000000000000e+00
          1.279482618500e+02 -5.628801953800e+02 0.000000000000e+00
          1.720517381500e+02 -7.371198046200e+02 0.000000000000e+00
          1.281392848900e+02 -5.230730106000e+02 0.000000000000e+00
          1.718607151100e+02 -7.769269894000e+02 0.000000000000e+00
          2.779645857900e+01 -6.154099541600e+02 0.000000000000e+00
          2.722035414200e+02 -6.845900458400e+02 0.000000000000e+00
          4.056037085600e+01 -6.447308038800e+02 0.000000000000e+00
          2.594396291400e+02 -6.552691961200e+02 0.000000000000e+00
          3.334032193700e+01 -5.490877383300e+02 0.000000000000e+00
          2.666596780600e+02 -7.509122616700e+02 0.000000000000e+00
          8.745616880900e+01 -6.461173703200e+02 0.000000000000e+00
          2.125438311900e+02 -6.538826296800e+02 0.000000000000e+00
          1.001985736200e+02 -5.986193159400e+02 0.000000000000e+00
          1.998014263800e+02 -7.013806840600e+02 0.000000000000e+00
          2.572360474600e+01 -7.593842002200e+02 0.000000000000e+00
          2.742763952500e+02 -5.406157997800e+02 0.000000000000e+00
          1.281694434700e+02 -7.740617620100e+02 0.000000000000e+00
          1.718305565300e+02 -5.259382379900e+02 0.000000000000e+00
          1.599943012300e+02 -7.118621012900e+02 0.000000000000e+00
          1.400056987700e+02 -5.881378987100e+02 0.000000000000e+00
          7.321039918000e+01 -6.394313669500e+02 0.000000000000e+00
          2.267896008200e+02 -6.605686330500e+02 0.000000000000e+00
          4.685971399400e+01 -5.301049353200e+02 0.000000000000e+00
          2.531402860100e+02 -7.698950646800e+02 0.000000000000e+00
          9.157538483900e+01 -7.859904607800e+02 0.000000000000e+00
          2.084246151600e+02 -5.140095392200e+02 0.000000000000e+00
          9.348665041600e+01 -7.727620796800e+02 0.000000000000e+00
          2.065133495800e+02 -5.272379203200e+02 0.000000000000e+00
          7.058342710000e+01 -6.124178790300e+02 0.000000000000e+00
          2.294165729000e+02 -6.875821209700e+02 0.000000000000e+00
          6.114223544900e+01 -6.350068848200e+02 0.000000000000e+00
          2.388577645500e+02 -6.649931151800e+02 0.000000000000e+00
          9.240141015800e+01 -5.897890751800e+02 0.000000000000e+00
          2.075985898400e+02 -7.102109248200e+02 0.000000000000e+00
          1.833419681500e+02 -6.984372211400e+02 0.000000000000e+00
          1.166580318500e+02 -6.015627788600e+02 0.000000000000e+00
          8.815021915200e+01 -6.908352212400e+02 0.000000000000e+00
          2.118497808500e+02 -6.091647787600e+02 0.000000000000e+00
          1.075278780300e+02 -6.955098529100e+02 0.000000000000e+00
          1.924721219700e+02 -6.044901470900e+02 0.000000000000e+00
          5.713808256700e+01 -7.731504163800e+02 0.000000000000e+00
          2.428619174300e+02 -5.268495836200e+02 0.000000000000e+00
          9.114281556700e+01 -7.044918170100e+02 0.000000000000e+00
          2.088571844300e+02 -5.955081829900e+02 0.000000000000e+00
          2.940637986000e+01 -5.838458535300e+02 0.000000000000e+00
          2.705936201400e+02 -7.161541464700e+02 0.000000000000e+00
          9.949370703900e+01 -6.692216853900e+02 0.000000000000e+00
          2.005062929600e+02 -6.307783146100e+02 0.000000000000e+00
          3.534347447700e+01 -6.677713200800e+02 0.000000000000e+00
          2.646565255200e+02 -6.322286799200e+02 0.000000000000e+00
          1.357811718900e+02 -7.022075728300e+02 0.000000000000e+00
          1.642188281100e+02 -5.977924271700e+02 0.000000000000e+00
          5.138002796400e+01 -7.124057430000e+02 0.000000000000e+00
          2.486199720400e+02 -5.875942570000e+02 0.000000000000e+00
          1.231928304700e+02 -5.972944555800e+02 0.000000000000e+00
          1.768071695300e+02 -7.027055444200e+02 0.000000000000e+00
          8.420885543500e+01 -6.840379620400e+02 0.000000000000e+00
          2.157911445700e+02 -6.159620379600e+02 0.000000000000e+00
          7.561057262400e+01 -7.718305195000e+02 0.000000000000e+00
          2.243894273800e+02 -5.281694805000e+02 0.000000000000e+00
          1.677953328300e+02 -7.257195954400e+02 0.000000000000e+00
          1.322046671700e+02 -5.742804045600e+02 0.000000000000e+00
          1.221067248700e+02 -7.173210399600e+02 0.000000000000e+00
          1.778932751300e+02 -5.826789600400e+02 0.000000000000e+00
          1.045538172000e+02 -5.259854579300e+02 0.000000000000e+00
          1.954461828000e+02 -7.740145420700e+02 0.000000000000e+00
          8.228680613700e+01 -6.530434337800e+02 0.000000000000e+00
          2.177131938600e+02 -6.469565662200e+02 0.000000000000e+00
          2.891453739500e+01 -6.010393756200e+02 0.000000000000e+00
          2.710854626100e+02 -6.989606243800e+02 0.000000000000e+00
          5.934202772700e+01 -6.019954767900e+02 0.000000000000e+00
          2.406579722700e+02 -6.980045232100e+02 0.000000000000e+00
          8.307463950100e+01 -6.953204074200e+02 0.000000000000e+00
          2.169253605000e+02 -6.046795925800e+02 0.000000000000e+00
          9.191835048300e+00 -6.260510900400e+02 0.000000000000e+00
          2.908081649500e+02 -6.739489099600e+02 0.000000000000e+00
          1.069807200700e+01 -5.251013924100e+02 0.000000000000e+00
          2.893019279900e+02 -7.748986075900e+02 0.000000000000e+00
          1.536083320500e+02 -7.176858707000e+02 0.000000000000e+00
          1.463916679500e+02 -5.823141293000e+02 0.000000000000e+00
          1.070212895300e+02 -6.819201665000e+02 0.000000000000e+00
          1.929787104700e+02 -6.180798335000e+02 0.000000000000e+00
          9.426348225300e+00 -5.525000000000e+02 0.000000000000e+00
          2.905736517700e+02 -7.475000000000e+02 0.000000000000e+00
          4.963980518300e+01 -6.575442789400e+02 0.000000000000e+00
          2.503601948200e+02 -6.424557210600e+02 0.000000000000e+00
          2.807728720600e+01 -7.049733158000e+02 0.000000000000e+00
          2.719227127900e+02 -5.950266842000e+02 0.000000000000e+00
          9.152656191700e+01 -6.561445911200e+02 0.000000000000e+00
          2.084734380800e+02 -6.438554088800e+02 0.000000000000e+00
          1.115983528300e+02 -7.217939902600e+02 0.000000000000e+00
          1.884016471700e+02 -5.782060097400e+02 0.000000000000e+00
          1.045678627700e+02 -5.772017012900e+02 0.000000000000e+00
          1.954321372300e+02 -7.227982987100e+02 0.000000000000e+00
          7.099907427000e+01 -5.783731904600e+02 0.000000000000e+00
          2.290009257300e+02 -7.216268095400e+02 0.000000000000e+00
          9.408154994200e+01 -5.670914052700e+02 0.000000000000e+00
          2.059184500600e+02 -7.329085947300e+02 0.000000000000e+00
          1.496163959500e+02 -7.087941477500e+02 0.000000000000e+00
          1.503836040500e+02 -5.912058522500e+02 0.000000000000e+00
          1.102855309400e+02 -6.140807781800e+02 0.000000000000e+00
          1.897144690600e+02 -6.859192218200e+02 0.000000000000e+00
          1.023255390500e+02 -6.043283289800e+02 0.000000000000e+00
          1.976744609500e+02 -6.956716710200e+02 0.000000000000e+00
          4.365276217700e+01 -6.950032234100e+02 0.000000000000e+00
          2.563472378200e+02 -6.049967765900e+02 0.000000000000e+00
          1.080891895100e+02 -7.344546277300e+02 0.000000000000e+00
          1.919108104900e+02 -5.655453722700e+02 0.000000000000e+00
          7.267139902100e+01 -6.792081279400e+02 0.000000000000e+00
          2.273286009800e+02 -6.207918720600e+02 0.000000000000e+00
          1.162768352100e+02 -7.622787359000e+02 0.000000000000e+00
          1.837231647900e+02 -5.377212641000e+02 0.000000000000e+00
          1.989108048300e+02 -6.729529266700e+02 0.000000000000e+00
          1.010891951700e+02 -6.270470733300e+02 0.000000000000e+00
          7.738351291200e+01 -7.885093668900e+02 0.000000000000e+00
          2.226164870900e+02 -5.114906331100e+02 0.000000000000e+00
          1.611794777200e+02 -7.031915038300e+02 0.000000000000e+00
          1.388205222800e+02 -5.968084961700e+02 0.000000000000e+00
          1.955544259800e+02 -6.795326287300e+02 0.000000000000e+00
          1.044455740200e+02 -6.204673712700e+02 0.000000000000e+00
          2.375194693300e+01 -6.404883086700e+02 0.000000000000e+00
          2.762480530700e+02 -6.595116913300e+02 0.000000000000e+00
          1.313379980200e+02 -5.917351660300e+02 0.000000000000e+00
          1.686620019800e+02 -7.082648339700e+02 0.000000000000e+00
          5.737204850800e+01 -7.386271814100e+02 0.000000000000e+00
          2.426279514900e+02 -5.613728185900e+02 0.000000000000e+00
          2.896759086400e+02 -6.253225321100e+02 0.000000000000e+00
          1.032409136100e+01 -6.746774678900e+02 0.000000000000e+00
          2.026050936100e+02 -6.380265790600e+02 0.000000000000e+00
          9.739490639000e+01 -6.619734209400e+02 0.000000000000e+00
          5.884114366200e+01 -7.601754467300e+02 0.000000000000e+00
          2.411588563400e+02 -5.398245532700e+02 0.000000000000e+00
          9.597891690000e+01 -6.441234982100e+02 0.000000000000e+00
          2.040210831000e+02 -6.558765017900e+02 0.000000000000e+00
          1.585753654600e+02 -7.910497629400e+02 0.000000000000e+00
          1.414246345400e+02 -5.089502370600e+02 0.000000000000e+00
          1.432405892700e+02 -7.035251498500e+02 0.000000000000e+00
          1.567594107300e+02 -5.964748501500e+02 0.000000000000e+00
          7.352121245800e+01 -5.301387216700e+02 0.000000000000e+00
          2.264787875400e+02 -7.698612783300e+02 0.000000000000e+00
          1.167940453900e+02 -7.462418038100e+02 0.000000000000e+00
          1.832059546100e+02 -5.537581961900e+02 0.000000000000e+00
          1.069946222400e+02 -5.706019321200e+02 0.000000000000e+00
          1.930053777600e+02 -7.293980678800e+02 0.000000000000e+00
          4.356250891100e+01 -7.211183953000e+02 0.000000000000e+00
          2.564374910900e+02 -5.788816047000e+02 0.000000000000e+00
          1.019392958100e+02 -6.125977077900e+02 0.000000000000e+00
          1.980607041900e+02 -6.874022922100e+02 0.000000000000e+00
          1.289669426300e+02 -7.295122081100e+02 0.000000000000e+00
          1.710330573700e+02 -5.704877918900e+02 0.000000000000e+00
          9.018603613000e+01 -6.376300618400e+02 0.000000000000e+00
          2.098139638700e+02 -6.623699381600e+02 0.000000000000e+00
          4.901266948000e+01 -6.808388793100e+02 0.000000000000e+00
          2.509873305200e+02 -6.191611206900e+02 0.000000000000e+00
          1.517120211200e+02 -7.510632800600e+02 0.000000000000e+00
          1.482879788800e+02 -5.489367199400e+02 0.000000000000e+00
          1.429464381600e+02 -7.654882684400e+02 0.000000000000e+00
          1.570535618400e+02 -5.345117315600e+02 0.000000000000e+00
          6.776618873200e+01 -6.487684823300e+02 0.000000000000e+00
          2.322338112700e+02 -6.512315176700e+02 0.000000000000e+00
          9.235640571900e+01 -6.075746318600e+02 0.000000000000e+00
          2.076435942800e+02 -6.924253681400e+02 0.000000000000e+00
          9.440056939400e+01 -5.966201431800e+02 0.000000000000e+00
          2.055994306100e+02 -7.033798568200e+02 0.000000000000e+00
          9.378164692700e+00 -6.554898062100e+02 0.000000000000e+00
          2.906218353100e+02 -6.445101937900e+02 0.000000000000e+00
          1.594365374300e+02 -7.316016654800e+02 0.000000000000e+00
          1.405634625700e+02 -5.683983345200e+02 0.000000000000e+00
          1.856862027200e+02 -6.106263428200e+02 0.000000000000e+00
          1.143137972800e+02 -6.893736571800e+02 0.000000000000e+00
          1.047958803100e+02 -5.888118172800e+02 0.000000000000e+00
          1.952041196900e+02 -7.111881827200e+02 0.000000000000e+00
          3.531311791100e+01 -5.276002237000e+02 0.000000000000e+00
          2.646868820900e+02 -7.723997763000e+02 0.000000000000e+00
          1.357269590000e+02 -7.396737638600e+02 0.000000000000e+00
          1.642730410000e+02 -5.603262361400e+02 0.000000000000e+00
          5.526933383600e+01 -6.456670288200e+02 0.000000000000e+00
          2.447306661600e+02 -6.543329711800e+02 0.000000000000e+00
          3.284056679900e+01 -5.745050748300e+02 0.000000000000e+00
          2.671594332000e+02 -7.254949251700e+02 0.000000000000e+00
          9.301114440700e+01 -7.107729792400e+02 0.000000000000e+00
          2.069888555900e+02 -5.892270207600e+02 0.000000000000e+00
          1.228146562700e+02 -5.510908691600e+02 0.000000000000e+00
          1.771853437300e+02 -7.489091308400e+02 0.000000000000e+00
          2.714116985500e+01 -6.301849185500e+02 0.000000000000e+00
          2.728588301400e+02 -6.698150814500e+02 0.000000000000e+00
          1.071849675900e+02 -6.910261295000e+02 0.000000000000e+00
          1.928150324100e+02 -6.089738705000e+02 0.000000000000e+00
          3.710032123900e+01 -7.754702361800e+02 0.000000000000e+00
          2.628996787600e+02 -5.245297638200e+02 0.000000000000e+00
          1.668113938500e+02 -7.394436900600e+02 0.000000000000e+00
          1.331886061500e+02 -5.605563099400e+02 0.000000000000e+00
          1.021499129800e+02 -7.402750524300e+02 0.000000000000e+00
          1.978500870200e+02 -5.597249475700e+02 0.000000000000e+00
          1.296127809200e+02 -7.529916145100e+02 0.000000000000e+00
          1.703872190800e+02 -5.470083854900e+02 0.000000000000e+00
          1.023049169400e+01 -7.066707062600e+02 0.000000000000e+00
          2.897695083100e+02 -5.933292937400e+02 0.000000000000e+00
          9.453642792300e+01 -6.811962084300e+02 0.000000000000e+00
          2.054635720800e+02 -6.188037915700e+02 0.000000000000e+00
          1.772674821000e+02 -6.045069545200e+02 0.000000000000e+00
          1.227325179000e+02 -6.954930454800e+02 0.000000000000e+00
          1.014696050200e+01 -7.747925563800e+02 0.000000000000e+00
          2.898530395000e+02 -5.252074436200e+02 0.000000000000e+00
          5.013509038900e+01 -6.706451706500e+02 0.000000000000e+00
          2.498649096100e+02 -6.293548293500e+02 0.000000000000e+00
          1.238218082000e+02 -7.080103356100e+02 0.000000000000e+00
          1.761781918000e+02 -5.919896643900e+02 0.000000000000e+00
          9.858756923800e+01 -5.484984710500e+02 0.000000000000e+00
          2.014124307600e+02 -7.515015289500e+02 0.000000000000e+00
          5.133617971100e+01 -5.488632541200e+02 0.000000000000e+00
          2.486638202900e+02 -7.511367458800e+02 0.000000000000e+00
          2.849487778600e+01 -7.466949010500e+02 0.000000000000e+00
          2.715051222100e+02 -5.533050989500e+02 0.000000000000e+00
          1.098537939600e+02 -7.041039401400e+02 0.000000000000e+00
          1.901462060400e+02 -5.958960598600e+02 0.000000000000e+00
          6.496542383400e+01 -7.396125865100e+02 0.000000000000e+00
          2.350345761700e+02 -5.603874134900e+02 0.000000000000e+00
          8.835550677900e+01 -6.124260478400e+02 0.000000000000e+00
          2.116444932200e+02 -6.875739521600e+02 0.000000000000e+00
          7.248858903600e+01 -5.650071327600e+02 0.000000000000e+00
          2.275114109600e+02 -7.349928672400e+02 0.000000000000e+00
          1.390551859400e+02 -7.519188252200e+02 0.000000000000e+00
          1.609448140600e+02 -5.480811747800e+02 0.000000000000e+00
          8.882324546900e+01 -7.464208171200e+02 0.000000000000e+00
          2.111767545300e+02 -5.535791828800e+02 0.000000000000e+00
          1.636646865700e+02 -7.602857736400e+02 0.000000000000e+00
          1.363353134300e+02 -5.397142263600e+02 0.000000000000e+00
          6.256649248500e+01 -6.636828301900e+02 0.000000000000e+00
          2.374335075200e+02 -6.363171698100e+02 0.000000000000e+00
          4.794148513000e+01 -6.420453084900e+02 0.000000000000e+00
          2.520585148700e+02 -6.579546915100e+02 0.000000000000e+00
          2.221726908900e+02 -6.486171091000e+02 0.000000000000e+00
          7.782730911400e+01 -6.513828909000e+02 0.000000000000e+00
          2.917641209900e+02 -5.518754787300e+02 0.000000000000e+00
          8.235879007500e+00 -7.481245212700e+02 0.000000000000e+00
          1.335866602100e+02 -7.669366342100e+02 0.000000000000e+00
          1.664133397900e+02 -5.330633657900e+02 0.000000000000e+00
          2.752799822000e+02 -5.096707875900e+02 0.000000000000e+00
          2.472001779600e+01 -7.903292124100e+02 0.000000000000e+00
          1.122784073500e+02 -5.429030886300e+02 0.000000000000e+00
          1.877215926500e+02 -7.570969113700e+02 0.000000000000e+00
          4.272031437400e+01 -7.370657058900e+02 0.000000000000e+00
          2.572796856300e+02 -5.629342941100e+02 0.000000000000e+00
          9.032958868000e+01 -6.012844853900e+02 0.000000000000e+00
          2.096704113200e+02 -6.987155146100e+02 0.000000000000e+00
          1.556961446100e+02 -7.219674263200e+02 0.000000000000e+00
          1.443038553900e+02 -5.780325736800e+02 0.000000000000e+00
          2.085611670100e+02 -6.338142444200e+02 0.000000000000e+00
          9.143883299300e+01 -6.661857555800e+02 0.000000000000e+00
          7.969548307300e+01 -6.041455242600e+02 0.000000000000e+00
          2.203045169300e+02 -6.958544757400e+02 0.000000000000e+00
          1.866325285600e+02 -7.918401138200e+02 0.000000000000e+00
          1.133674714400e+02 -5.081598861800e+02 0.000000000000e+00
          1.123753738500e+02 -5.571636170100e+02 0.000000000000e+00
          1.876246261500e+02 -7.428363829900e+02 0.000000000000e+00
          5.874090204500e+01 -5.808269390600e+02 0.000000000000e+00
          2.412590979500e+02 -7.191730609400e+02 0.000000000000e+00
          7.764191729200e+01 -6.857929054500e+02 0.000000000000e+00
          2.223580827100e+02 -6.142070945500e+02 0.000000000000e+00
          1.396304242300e+02 -7.098616212000e+02 0.000000000000e+00
          1.603695757700e+02 -5.901383788000e+02 0.000000000000e+00
          9.341716093200e+01 -6.288739176000e+02 0.000000000000e+00
          2.065828390700e+02 -6.711260824000e+02 0.000000000000e+00
          1.239809163800e+02 -5.824848563600e+02 0.000000000000e+00
          1.760190836200e+02 -7.175151436400e+02 0.000000000000e+00
          8.044302738600e+01 -6.621520898600e+02 0.000000000000e+00
          2.195569726100e+02 -6.378479101400e+02 0.000000000000e+00
          5.464128168400e+01 -6.222884085100e+02 0.000000000000e+00
          2.453587183200e+02 -6.777115914900e+02 0.000000000000e+00
          1.384931089100e+02 -7.898091485600e+02 0.000000000000e+00
          1.615068910900e+02 -5.101908514400e+02 0.000000000000e+00
          1.447242013200e+02 -7.204131498800e+02 0.000000000000e+00
          1.552757986800e+02 -5.795868501200e+02 0.000000000000e+00
          8.198527835200e+01 -6.105571604300e+02 0.000000000000e+00
          2.180147216500e+02 -6.894428395700e+02 0.000000000000e+00
          1.624459021700e+02 -7.082367466800e+02 0.000000000000e+00
          1.375540978300e+02 -5.917632533200e+02 0.000000000000e+00
          6.098351891500e+01 -7.182706110600e+02 0.000000000000e+00
          2.390164810900e+02 -5.817293889400e+02 0.000000000000e+00
          2.090003731700e+02 -6.570086158700e+02 0.000000000000e+00
          9.099962682900e+01 -6.429913841300e+02 0.000000000000e+00
          8.093524763800e+01 -6.307641233600e+02 0.000000000000e+00
          2.190647523600e+02 -6.692358766400e+02 0.000000000000e+00
          5.300284065300e+01 -6.307667044900e+02 0.000000000000e+00
          2.469971593500e+02 -6.692332955100e+02 0.000000000000e+00
          5.153176266500e+01 -7.531208385700e+02 0.000000000000e+00
          2.484682373400e+02 -5.468791614300e+02 0.000000000000e+00
          1.156278889900e+02 -5.788349191000e+02 0.000000000000e+00
          1.843721110100e+02 -7.211650809000e+02 0.000000000000e+00
          8.156922309600e+01 -5.677742753700e+02 0.000000000000e+00
          2.184307769000e+02 -7.322257246300e+02 0.000000000000e+00
          1.573814650500e+02 -7.028401804800e+02 0.000000000000e+00
          1.426185349500e+02 -5.971598195200e+02 0.000000000000e+00
          3.440369423200e+01 -6.767917662700e+02 0.000000000000e+00
          2.655963057700e+02 -6.232082337300e+02 0.000000000000e+00
          9.598320986300e+01 -5.851337494000e+02 0.000000000000e+00
          2.040167901400e+02 -7.148662506000e+02 0.000000000000e+00
          1.974623113600e+02 -6.175765111400e+02 0.000000000000e+00
          1.025376886400e+02 -6.824234888600e+02 0.000000000000e+00
          9.669225695300e+01 -6.478440752300e+02 0.000000000000e+00
          2.033077430500e+02 -6.521559247700e+02 0.000000000000e+00
          6.893240043400e+01 -6.952555702300e+02 0.000000000000e+00
          2.310675995700e+02 -6.047444297700e+02 0.000000000000e+00
          7.593562548000e+01 -7.620080063200e+02 0.000000000000e+00
          2.240643745200e+02 -5.379919936800e+02 0.000000000000e+00
          3.318790725600e+01 -5.583898104200e+02 0.000000000000e+00
          2.668120927400e+02 -7.416101895800e+02 0.000000000000e+00
          9.898465410300e+01 -6.333202495600e+02 0.000000000000e+00
          2.010153459000e+02 -6.666797504400e+02 0.000000000000e+00
          9.618645427500e+01 -6.714974033700e+02 0.000000000000e+00
          2.038135457300e+02 -6.285025966300e+02 0.000000000000e+00
          4.508379339600e+01 -5.733300980000e+02 0.000000000000e+00
          2.549162066000e+02 -7.266699020000e+02 0.000000000000e+00
          1.573436720600e+02 -7.455196189300e+02 0.000000000000e+00
          1.426563279400e+02 -5.544803810700e+02 0.000000000000e+00
          1.337812386700e+02 -7.057512327100e+02 0.000000000000e+00
          1.662187613300e+02 -5.942487672900e+02 0.000000000000e+00
          1.004400524400e+02 -7.908710944000e+02 0.000000000000e+00
          1.995599475600e+02 -5.091289056000e+02 0.000000000000e+00
          8.431777131500e+01 -6.211082162100e+02 0.000000000000e+00
          2.156822286800e+02 -6.788917837900e+02 0.000000000000e+00
          6.581141967000e+01 -6.537574620100e+02 0.000000000000e+00
          2.341885803300e+02 -6.462425379900e+02 0.000000000000e+00
          6.159153177800e+01 -5.896545967700e+02 0.000000000000e+00
          2.384084682200e+02 -7.103454032300e+02 0.000000000000e+00
          7.178306363000e+01 -7.278371838800e+02 0.000000000000e+00
          2.282169363700e+02 -5.721628161200e+02 0.000000000000e+00
          1.642149634900e+02 -7.455034125600e+02 0.000000000000e+00
          1.357850365100e+02 -5.544965874400e+02 0.000000000000e+00
          6.982831923200e+01 -5.546888228900e+02 0.000000000000e+00
          2.301716807700e+02 -7.453111771100e+02 0.000000000000e+00
          7.866627581800e+01 -5.088742795500e+02 0.000000000000e+00
          2.213337241800e+02 -7.911257204500e+02 0.000000000000e+00
          1.152184331800e+02 -6.091936059600e+02 0.000000000000e+00
          1.847815668200e+02 -6.908063940400e+02 0.000000000000e+00
          5.473220791200e+01 -6.520232705500e+02 0.000000000000e+00
          2.452677920900e+02 -6.479767294500e+02 0.000000000000e+00
          8.843084897200e+01 -7.246719080000e+02 0.000000000000e+00
          2.115691510300e+02 -5.753280920000e+02 0.000000000000e+00
          1.065683472900e+01 -6.458700909200e+02 0.000000000000e+00
          2.893431652700e+02 -6.541299090800e+02 0.000000000000e+00
          4.381690629200e+01 -7.898345376700e+02 0.000000000000e+00
          2.561830937100e+02 -5.101654623300e+02 0.000000000000e+00
          1.542205358400e+02 -7.348138513100e+02 0.000000000000e+00
          1.457794641600e+02 -5.651861486900e+02 0.000000000000e+00
          7.673171100600e+00 -7.923268289000e+02 0.000000000000e+00
          2.923605072100e+02 -5.076394927900e+02 0.000000000000e+00
          8.257359688300e+01 -6.774320695300e+02 0.000000000000e+00
          2.174264031200e+02 -6.225679304700e+02 0.000000000000e+00
          8.299656210700e+01 -7.217931279500e+02 0.000000000000e+00
          2.170034378900e+02 -5.782068720500e+02 0.000000000000e+00
          7.664725278600e+01 -6.148157904600e+02 0.000000000000e+00
          2.233527472100e+02 -6.851842095400e+02 0.000000000000e+00
          9.972770175500e+00 -5.727977258100e+02 0.000000000000e+00
          2.900272298200e+02 -7.272022741900e+02 0.000000000000e+00
          7.768877247900e+01 -7.091722517700e+02 0.000000000000e+00
          2.223112275200e+02 -5.908277482300e+02 0.000000000000e+00
          6.468969798000e+01 -6.851738817900e+02 0.000000000000e+00
          2.353103020200e+02 -6.148261182100e+02 0.000000000000e+00
          1.865398888300e+01 -4.806684027800e+02 0.000000000000e+00
          2.813460111200e+02 -4.793315972200e+02 0.000000000000e+00
          1.575000000000e+02 -4.800000000000e+02 0.000000000000e+00
          1.282742571500e+02 -4.796682029400e+02 0.000000000000e+00
          5.240439297400e+01 -4.795430527700e+02 0.000000000000e+00
          8.067022892100e+01 -4.795968276500e+02 0.000000000000e+00
          1.875000000000e+02 -4.800000000000e+02 0.000000000000e+00
          2.475956070300e+02 -4.804569472300e+02 0.000000000000e+00
          2.175000000000e+02 -4.800000000000e+02 0.000000000000e+00
          1.034000367100e+02 -4.800364159600e+02 0.000000000000e+00
          2.647788703100e+02 -4.746871070200e+02 0.000000000000e+00
          3.522112969300e+01 -4.853128929800e+02 0.000000000000e+00
          1.425287922100e+02 -4.862948629600e+02 0.000000000000e+00
          1.725000000000e+02 -4.742187500000e+02 0.000000000000e+00
          6.724651675700e+01 -4.871153124700e+02 0.000000000000e+00
          2.025000000000e+02 -4.742187500000e+02 0.000000000000e+00
          2.325000000000e+02 -4.742187500000e+02 0.000000000000e+00
          1.164583987200e+02 -4.725785687200e+02 0.000000000000e+00
          1.725000000000e+02 -4.881473214300e+02 0.000000000000e+00
          6.710891156700e+01 -4.719503181500e+02 0.000000000000e+00
          2.025000000000e+02 -4.881473214300e+02 0.000000000000e+00
          2.325136581500e+02 -4.882125996000e+02 0.000000000000e+00
          1.425585312900e+02 -4.718399895600e+02 0.000000000000e+00
          1.167721154300e+02 -4.872815729400e+02 0.000000000000e+00
          3.966347508500e+01 -4.704133993100e+02 0.000000000000e+00
          2.603365249100e+02 -4.895866006900e+02 0.000000000000e+00
          9.256944444400e+01 -4.876302083300e+02 0.000000000000e+00
          9.256944444400e+01 -4.723697916700e+02 0.000000000000e+00
          1.155092592600e+01 -4.887760416700e+02 0.000000000000e+00
          1.061580276000e+01 -4.705054060300e+02 0.000000000000e+00
          2.884490740700e+02 -4.712239583300e+02 0.000000000000e+00
          2.893841972400e+02 -4.894945939700e+02 0.000000000000e+00
          2.485906607000e+01 -4.711500168500e+02 0.000000000000e+00
          2.751409339300e+02 -4.888499831500e+02 0.000000000000e+00
          2.285532784400e+01 -4.909692999000e+02 0.000000000000e+00
          2.771446721600e+02 -4.690307001000e+02 0.000000000000e+00
          1.575000000000e+02 -4.914062500000e+02 0.000000000000e+00
          1.275000000000e+02 -4.685937500000e+02 0.000000000000e+00
          1.575000000000e+02 -4.685937500000e+02 0.000000000000e+00
          1.280178739600e+02 -4.910198611100e+02 0.000000000000e+00
          5.283535592500e+01 -4.683813540500e+02 0.000000000000e+00
          1.875000000000e+02 -4.914062500000e+02 0.000000000000e+00
          5.236318406000e+01 -4.911428185200e+02 0.000000000000e+00
          1.875000000000e+02 -4.685937500000e+02 0.000000000000e+00
          2.175000000000e+02 -4.914062500000e+02 0.000000000000e+00
          2.470891580200e+02 -4.916512295000e+02 0.000000000000e+00
          2.476236191900e+02 -4.689266349600e+02 0.000000000000e+00
          2.175000000000e+02 -4.685937500000e+02 0.000000000000e+00
          8.109723802400e+01 -4.908684696900e+02 0.000000000000e+00
          8.106971698700e+01 -4.687833874900e+02 0.000000000000e+00
          7.542148405100e+00 -4.799963447900e+02 0.000000000000e+00
          2.924578515900e+02 -4.800036552100e+02 0.000000000000e+00
        </DataArray>
      </Points>
      <Cells>
        <DataArray type="Int64" Name="connectivity" format="ascii">
          603 385 1101 
          604 386 1102 
          311 571 865 
          312 572 866 
          603 1101 493 
          604 1102 494 
          297 407 1035 
          298 408 1036 
          423 735 1149 
          424 736 1150 
          13 937 455 
          456 105 938 
          865 571 443 
          866 572 444 
          13 14 937 
          938 105 104 
          535 671 321 
          536 672 322 
          637 567 313 
          638 568 314 
          547 853 259 
          548 854 260 
          691 855 417 
          692 856 418 
          297 767 407 
          298 768 408 
          387 969 223 
          388 970 224 
          729 1111 631 
          730 1112 632 
          729 383 1111 
          730 384 1112 
          999 547 259 
          1000 548 260 
          547 999 377 
          548 1000 378 
          391 851 173 
          392 852 175 
          453 607 1011 
          454 608 1012 
          855 691 185 
          856 692 186 
          445 571 182 
          446 572 181 
          531 759 331 
          532 760 332 
          803 691 417 
          804 692 418 
          625 457 83 
          626 458 41 
          567 637 277 
          568 638 278 
          825 569 213 
          826 570 214 
          817 433 92 
          818 434 26 
          519 751 241 
          520 752 242 
          763 817 90 
          764 818 28 
          433 845 286 
          434 846 288 
          783 433 286 
          784 434 288 
          453 1011 357 
          454 1012 358 
          761 509 244 
          762 510 243 
          797 479 335 
          798 480 336 
          777 387 223 
          778 388 224 
          569 825 389 
          570 826 390 
          671 535 171 
          672 536 172 
          753 429 293 
          754 430 294 
          525 821 363 
          526 822 364 
          827 1007 634 
          828 1008 636 
          423 1149 171 
          424 1150 172 
          160 661 159 
          130 662 129 
          950 457 239 
          949 458 240 
          83 457 82 
          41 458 40 
          817 91 90 
          28 818 27 
          411 567 277 
          412 568 278 
          535 423 171 
          536 424 172 
          704 580 318 
          703 579 317 
          591 447 169 
          592 448 170 
          1021 534 473 
          1022 533 474 
          120 467 119 
          150 468 149 
          522 397 249 
          521 398 250 
          665 399 254 
          666 400 253 
          112 469 111 
          142 470 141 
          1021 473 216 
          1022 474 215 
          1125 445 182 
          1126 446 181 
          401 523 251 
          402 524 252 
          849 753 205 
          850 754 206 
          637 827 277 
          638 828 278 
          437 559 233 
          438 560 234 
          1047 535 321 
          1048 536 322 
          851 441 173 
          852 442 175 
          961 419 286 
          962 420 288 
          939 465 136 
          940 466 166 
          183 611 929 
          184 612 930 
          417 789 231 
          418 790 232 
          447 647 169 
          448 648 170 
          393 884 291 
          394 883 292 
          813 445 273 
          814 446 274 
          765 391 173 
          766 392 175 
          603 493 289 
          604 494 290 
          759 531 209 
          760 532 210 
          429 614 293 
          430 613 294 
          747 797 335 
          748 798 336 
          583 801 203 
          584 802 204 
          827 634 277 
          828 636 278 
          431 993 237 
          432 994 238 
          473 534 267 
          474 533 268 
          744 461 328 
          743 462 327 
          579 611 317 
          580 612 318 
          583 713 801 
          584 714 802 
          562 463 217 
          561 464 218 
          631 393 291 
          632 394 292 
          541 950 239 
          542 949 240 
          788 795 95 
          787 796 23 
          451 955 155 
          452 956 125 
          543 585 321 
          544 586 322 
          739 517 343 
          740 518 344 
          465 709 136 
          466 710 166 
          669 491 233 
          670 492 234 
          891 827 637 
          892 828 638 
          479 1029 217 
          480 1030 218 
          538 1029 479 
          537 1030 480 
          753 849 429 
          754 850 430 
          461 562 328 
          462 561 327 
          497 669 233 
          498 670 234 
          614 481 293 
          613 482 294 
          863 953 453 
          864 954 454 
          751 519 409 
          752 520 410 
          419 663 286 
          420 664 288 
          134 508 133 
          164 507 163 
          821 525 221 
          822 526 222 
          433 783 92 
          434 784 26 
          843 409 295 
          844 410 296 
          499 695 205 
          500 696 206 
          953 863 225 
          954 864 226 
          481 1093 247 
          482 1094 248 
          562 461 254 
          561 462 253 
          538 479 269 
          537 480 270 
          487 693 335 
          488 694 336 
          607 453 211 
          608 454 212 
          509 761 393 
          510 762 394 
          662 941 129 
          661 942 159 
          559 497 233 
          560 498 234 
          529 1105 519 
          530 1106 520 
          723 733 405 
          724 734 406 
          715 451 155 
          716 452 125 
          461 665 254 
          462 666 253 
          585 543 205 
          586 544 206 
          617 777 223 
          618 778 224 
          409 649 295 
          410 650 296 
          773 421 229 
          774 422 230 
          225 455 881 
          226 456 882 
          831 739 343 
          832 740 344 
          1035 673 297 
          1036 674 298 
          579 703 187 
          580 704 188 
          669 497 311 
          670 498 312 
          929 611 475 
          930 612 476 
          499 963 371 
          500 964 372 
          447 577 261 
          448 578 262 
          733 459 193 
          734 460 194 
          563 936 281 
          564 935 282 
          457 811 239 
          458 812 240 
          459 721 193 
          460 722 194 
          627 727 200 
          628 728 199 
          744 1024 461 
          743 1023 462 
          755 745 413 
          756 746 414 
          634 411 277 
          636 412 278 
          936 605 281 
          935 606 282 
          834 242 752 
          833 241 751 
          225 863 455 
          226 864 456 
          29 764 1 
          71 763 3 
          764 28 1 
          763 90 3 
          757 701 297 
          758 702 298 
          244 842 761 
          243 841 762 
          695 585 205 
          696 586 206 
          767 701 85 
          768 702 43 
          1093 540 247 
          1094 539 248 
          811 457 301 
          812 458 302 
          457 625 301 
          458 626 302 
          799 473 267 
          800 474 268 
          27 818 26 
          817 92 91 
          1037 562 254 
          1038 561 253 
          1041 617 223 
          1042 618 224 
          781 477 273 
          782 478 274 
          447 591 285 
          448 592 287 
          775 749 359 
          776 750 360 
          32 1178 640 
          74 1177 639 
          529 519 341 
          530 520 342 
          691 731 185 
          692 732 186 
          397 833 249 
          398 834 250 
          471 755 197 
          472 756 198 
          685 475 283 
          686 476 284 
          579 619 283 
          580 620 284 
          627 915 237 
          628 916 238 
          701 1019 84 
          702 1020 42 
          399 861 254 
          400 862 253 
          863 453 357 
          864 454 358 
          747 471 197 
          748 472 198 
          529 195 1105 
          530 196 1106 
          425 711 227 
          426 712 228 
          693 505 279 
          694 506 280 
          841 401 251 
          842 402 252 
          691 803 303 
          692 804 304 
          481 614 17 
          482 613 101 
          497 559 216 
          498 560 215 
          963 499 235 
          964 500 236 
          459 705 275 
          460 706 276 
          909 757 201 
          910 758 202 
          705 495 275 
          706 496 276 
          789 919 231 
          790 920 232 
          993 627 237 
          994 628 238 
          611 579 283 
          612 580 284 
          18 481 17 
          482 101 100 
          479 797 269 
          480 798 270 
          1033 447 285 
          1034 448 287 
          421 793 229 
          422 794 230 
          453 1109 211 
          454 1110 212 
          431 237 1119 
          432 238 1120 
          435 829 329 
          436 830 330 
          1003 619 579 
          1004 620 580 
          441 773 229 
          442 774 230 
          475 611 283 
          476 612 284 
          710 466 339 
          709 465 340 
          1007 827 369 
          1008 828 370 
          467 533 325 
          468 534 326 
          749 775 77 
          750 776 35 
          619 443 245 
          620 444 246 
          695 263 1047 
          696 264 1048 
          765 649 391 
          766 650 392 
          538 470 328 
          537 469 327 
          569 887 271 
          570 888 272 
          693 487 183 
          694 488 184 
          463 703 317 
          464 704 318 
          833 483 249 
          834 484 250 
          727 627 361 
          728 628 362 
          85 701 84 
          43 702 42 
          803 417 231 
          804 418 232 
          920 790 416 
          919 789 415 
          969 573 223 
          970 574 224 
          509 597 339 
          510 598 340 
          795 96 95 
          23 796 22 
          834 752 484 
          833 751 483 
          781 425 227 
          782 426 228 
          727 525 265 
          728 526 266 
          467 741 119 
          468 742 149 
          861 491 254 
          862 492 253 
          443 1179 245 
          444 1180 246 
          743 469 112 
          744 470 142 
          701 757 367 
          702 758 368 
          489 841 251 
          490 842 252 
          761 842 490 
          762 841 489 
          86 767 85 
          44 768 43 
          522 153 8 
          521 123 4 
          997 515 180 
          998 516 178 
          733 723 307 
          734 724 308 
          839 481 247 
          840 482 248 
          907 435 329 
          908 436 330 
          459 733 307 
          460 734 308 
          523 138 9 
          524 168 5 
          881 937 345 
          882 938 346 
          32 33 1178 
          74 75 1177 
          967 201 757 
          968 202 758 
          719 997 180 
          720 998 178 
          575 507 164 
          576 508 134 
          491 861 233 
          492 862 234 
          31 518 30 
          73 517 72 
          937 881 455 
          938 882 456 
          997 279 725 
          998 280 726 
          1051 459 307 
          1052 460 308 
          795 788 323 
          796 787 324 
          508 668 133 
          507 667 163 
          589 1058 87 
          590 1057 45 
          745 755 309 
          746 756 310 
          155 955 154 
          125 956 124 
          958 653 365 
          957 654 366 
          167 940 166 
          137 939 136 
          1058 589 407 
          1057 590 408 
          887 713 271 
          888 714 272 
          931 459 275 
          932 460 276 
          731 691 421 
          732 692 422 
          483 751 189 
          484 752 190 
          581 1063 271 
          582 1064 272 
          482 840 294 
          481 839 293 
          737 909 201 
          738 910 202 
          1101 813 273 
          1102 814 274 
          1063 581 395 
          1064 582 396 
          967 757 513 
          968 758 514 
          451 715 341 
          452 716 342 
          755 471 309 
          756 472 310 
          551 601 285 
          552 602 287 
          571 1179 443 
          572 1180 444 
          617 529 281 
          618 530 282 
          903 683 147 
          904 684 117 
          562 1037 463 
          561 1038 464 
          1135 447 261 
          1136 448 262 
          471 971 279 
          472 972 280 
          445 717 273 
          446 718 274 
          475 685 263 
          476 686 264 
          88 589 87 
          46 590 45 
          791 649 195 
          792 650 196 
          1009 437 233 
          1010 438 234 
          598 510 199 
          597 509 200 
          762 489 191 
          761 490 192 
          535 685 423 
          536 686 424 
          463 785 217 
          464 786 218 
          911 587 353 
          912 588 354 
          527 729 291 
          528 730 292 
          1122 559 437 
          1121 560 438 
          695 1047 585 
          696 1048 586 
          449 977 333 
          450 978 334 
          627 993 361 
          628 994 362 
          441 805 173 
          442 806 175 
          115 666 114 
          145 665 144 
          649 765 295 
          650 766 296 
          505 693 183 
          506 694 184 
          587 623 353 
          588 624 354 
          593 921 355 
          594 922 356 
          601 551 286 
          602 552 288 
          495 711 275 
          496 712 276 
          147 683 146 
          117 684 116 
          525 727 361 
          526 728 362 
          649 791 391 
          650 792 392 
          477 875 273 
          478 876 274 
          893 441 229 
          894 442 230 
          1165 615 11 
          1166 616 107 
          559 1122 326 
          560 1121 325 
          695 499 371 
          696 500 372 
          666 1023 114 
          665 1024 144 
          471 719 309 
          472 720 310 
          129 941 128 
          159 942 158 
          525 815 221 
          526 816 222 
          941 606 128 
          942 605 158 
          629 593 355 
          630 594 356 
          571 895 182 
          572 896 181 
          777 605 387 
          778 606 388 
          595 1007 369 
          596 1008 370 
          971 693 279 
          972 694 280 
          967 513 289 
          968 514 290 
          945 509 339 
          946 510 340 
          473 879 216 
          474 880 215 
          1005 527 255 
          1006 528 256 
          1019 625 83 
          1020 626 41 
          553 869 151 
          554 870 121 
          491 1037 254 
          492 1038 253 
          609 1050 213 
          610 1049 214 
          483 889 249 
          484 890 250 
          653 958 98 
          654 957 20 
          885 487 335 
          886 488 336 
          865 669 311 
          866 670 312 
          874 558 110 
          873 557 140 
          466 945 339 
          465 946 340 
          705 174 1027 
          706 176 1028 
          663 783 286 
          664 784 288 
          675 551 285 
          676 552 287 
          1050 769 213 
          1049 770 214 
          501 793 303 
          502 794 304 
          997 725 515 
          998 726 516 
          870 467 120 
          869 468 150 
          469 874 111 
          470 873 141 
          837 607 211 
          838 608 212 
          517 905 343 
          518 906 344 
          901 489 251 
          902 490 252 
          12 1165 11 
          1166 107 106 
          685 535 263 
          686 536 264 
          1033 577 447 
          1034 578 448 
          455 807 13 
          456 808 105 
          605 777 281 
          606 778 282 
          522 643 153 
          521 644 123 
          803 503 303 
          804 504 304 
          1125 717 445 
          1126 718 446 
          815 525 361 
          816 526 362 
          927 781 227 
          928 782 228 
          689 583 203 
          690 584 204 
          513 757 297 
          514 758 298 
          645 523 9 
          646 524 5 
          165 575 164 
          135 576 134 
          943 1007 595 
          944 1008 596 
          848 938 103 
          847 937 15 
          705 1027 495 
          706 1028 496 
          747 971 471 
          748 972 472 
          765 511 295 
          766 512 296 
          858 525 363 
          857 526 364 
          1135 531 331 
          1136 532 332 
          450 334 1050 
          449 333 1049 
          729 631 291 
          730 632 292 
          493 967 289 
          494 968 290 
          885 479 217 
          886 480 218 
          929 505 183 
          930 506 184 
          952 553 151 
          951 554 121 
          980 652 404 
          979 651 403 
          717 781 273 
          718 782 274 
          679 541 239 
          680 542 240 
          505 725 279 
          506 726 280 
          915 627 383 
          916 628 384 
          558 960 110 
          557 959 140 
          1060 980 404 
          1059 979 403 
          539 687 248 
          540 688 247 
          787 802 324 
          788 801 323 
          519 973 341 
          520 974 342 
          741 467 325 
          742 468 326 
          469 743 327 
          470 744 328 
          509 945 244 
          510 946 243 
          587 911 249 
          588 912 250 
          932 722 460 
          931 721 459 
          675 689 203 
          676 690 204 
          802 787 420 
          801 788 419 
          884 555 291 
          883 556 292 
          927 599 301 
          928 600 302 
          655 871 379 
          656 872 380 
          617 1143 529 
          618 1144 530 
          569 779 213 
          570 780 214 
          729 527 177 
          730 528 179 
          830 772 330 
          829 771 329 
          875 477 201 
          876 478 202 
          551 961 286 
          552 962 288 
          905 517 73 
          906 518 31 
          777 617 281 
          778 618 282 
          921 593 251 
          922 594 252 
          673 513 297 
          674 514 298 
          781 927 477 
          782 928 478 
          491 669 187 
          492 670 188 
          973 451 341 
          974 452 342 
          687 539 365 
          688 540 366 
          1019 701 367 
          1020 702 368 
          623 799 267 
          624 800 268 
          25 664 24 
          663 94 93 
          551 675 203 
          552 676 204 
          817 763 337 
          818 764 338 
          511 853 295 
          512 854 296 
          574 926 376 
          573 925 375 
          477 737 201 
          478 738 202 
          153 643 152 
          123 644 122 
          541 679 373 
          542 680 374 
          109 646 5 
          139 645 9 
          823 527 291 
          824 528 292 
          513 1065 289 
          514 1066 290 
          517 739 337 
          518 740 338 
          797 629 269 
          798 630 270 
          938 104 103 
          15 937 14 
          1152 609 255 
          1151 610 256 
          647 1135 331 
          648 1136 332 
          845 601 286 
          846 602 288 
          527 1005 395 
          528 1006 396 
          677 919 315 
          678 920 316 
          785 463 317 
          786 464 318 
          529 1143 195 
          530 1144 196 
          751 843 189 
          752 844 190 
          575 710 339 
          576 709 340 
          563 1131 157 
          564 1132 127 
          565 1017 235 
          566 1018 236 
          859 497 216 
          860 498 215 
          547 843 295 
          548 844 296 
          457 950 82 
          458 949 40 
          525 858 265 
          526 857 266 
          926 836 376 
          925 835 375 
          925 573 305 
          926 574 306 
          1156 787 23 
          1155 788 95 
          793 1147 229 
          794 1148 230 
          634 633 411 
          636 635 412 
          565 933 293 
          566 934 294 
          973 519 241 
          974 520 242 
          997 471 279 
          998 472 280 
          727 597 200 
          728 598 199 
          511 765 173 
          512 766 175 
          821 641 363 
          822 642 364 
          657 1065 211 
          658 1066 212 
          785 885 217 
          786 886 218 
          581 707 177 
          582 708 179 
          917 501 303 
          918 502 304 
          583 689 315 
          584 690 316 
          771 679 329 
          772 680 330 
          688 770 333 
          687 769 334 
          935 564 127 
          936 563 157 
          503 917 303 
          504 918 304 
          721 799 193 
          722 800 194 
          883 762 191 
          884 761 192 
          527 823 255 
          528 824 256 
          1017 565 403 
          1018 566 404 
          1147 793 501 
          1148 794 502 
          1031 581 271 
          1032 582 272 
          1035 837 211 
          1036 838 212 
          1113 803 231 
          1114 804 232 
          641 821 305 
          642 822 306 
          479 885 335 
          480 886 336 
          701 767 297 
          702 768 298 
          622 1062 299 
          621 1061 300 
          485 1081 182 
          486 1082 181 
          710 575 165 
          709 576 135 
          1029 562 217 
          1030 561 218 
          151 869 150 
          121 870 120 
          617 1041 427 
          618 1042 428 
          1062 615 299 
          1061 616 300 
          78 749 77 
          36 750 35 
          111 874 110 
          141 873 140 
          609 1152 450 
          610 1151 449 
          1135 647 447 
          1136 648 448 
          773 851 257 
          774 852 258 
          503 1043 169 
          504 1044 170 
          703 491 187 
          704 492 188 
          1094 482 100 
          1093 481 18 
          797 747 197 
          798 748 198 
          911 522 249 
          912 521 250 
          17 614 16 
          613 102 101 
          889 587 249 
          890 588 250 
          24 1156 23 
          1155 95 94 
          965 707 415 
          966 708 416 
          589 1025 299 
          590 1026 300 
          871 1117 379 
          872 1118 380 
          1065 673 211 
          1066 674 212 
          133 668 132 
          163 667 162 
          803 1113 503 
          804 1114 504 
          1015 475 263 
          1016 476 264 
          681 907 174 
          682 908 176 
          539 1094 99 
          540 1093 19 
          737 927 301 
          738 928 302 
          1073 1097 439 
          1074 1098 440 
          827 749 369 
          828 750 370 
          633 634 219 
          635 636 220 
          523 921 251 
          524 922 252 
          825 653 389 
          826 654 390 
          847 849 345 
          848 850 346 
          1086 530 342 
          1085 529 341 
          919 707 315 
          920 708 316 
          849 847 429 
          850 848 430 
          573 969 305 
          574 970 306 
          21 654 20 
          653 98 97 
          759 637 313 
          760 638 314 
          593 901 251 
          594 902 252 
          1127 543 321 
          1128 544 322 
          499 933 235 
          500 934 236 
          713 583 271 
          714 584 272 
          837 589 299 
          838 590 300 
          753 499 205 
          754 500 206 
          561 1030 327 
          562 1029 328 
          933 753 293 
          934 754 294 
          843 547 189 
          844 548 190 
          497 859 311 
          498 860 312 
          545 891 209 
          546 892 210 
          1025 622 299 
          1026 621 300 
          749 827 359 
          750 828 360 
          707 965 177 
          708 966 179 
          515 1045 180 
          516 1046 178 
          923 641 305 
          924 642 306 
          689 677 315 
          690 678 316 
          555 884 192 
          556 883 191 
          619 1003 443 
          620 1004 444 
          683 903 437 
          684 904 438 
          505 929 371 
          506 930 372 
          1021 559 326 
          1022 560 325 
          510 1088 199 
          509 1087 200 
          1131 563 341 
          1132 564 342 
          895 571 311 
          896 572 312 
          1023 666 462 
          1024 665 461 
          689 675 347 
          690 676 348 
          977 697 180 
          978 698 178 
          975 599 227 
          976 600 228 
          1079 501 169 
          1080 502 170 
          547 981 189 
          548 982 190 
          1051 705 459 
          1052 706 460 
          1056 483 189 
          1055 484 190 
          855 985 431 
          856 986 432 
          899 517 337 
          900 518 338 
          1089 623 587 
          1090 624 588 
          501 917 169 
          502 918 170 
          895 485 182 
          896 486 181 
          731 1073 439 
          732 1074 440 
          917 503 169 
          918 504 170 
          1063 569 271 
          1064 570 272 
          990 555 192 
          989 556 191 
          1171 799 721 
          1172 800 722 
          1159 907 681 
          1160 908 682 
          639 699 343 
          640 700 344 
          487 913 183 
          488 914 184 
          677 689 347 
          678 690 348 
          523 1115 138 
          524 1116 168 
          655 907 329 
          656 908 330 
          699 639 351 
          700 640 352 
          1124 521 4 
          1123 522 8 
          867 545 209 
          868 546 210 
          607 837 299 
          608 838 300 
          759 659 331 
          760 660 332 
          661 923 305 
          662 924 306 
          1097 1175 427 
          1098 1176 428 
          518 900 30 
          517 899 72 
          1119 855 431 
          1120 856 432 
          597 727 265 
          598 728 266 
          719 697 309 
          720 698 310 
          629 1095 593 
          630 1096 594 
          770 688 366 
          769 687 365 
          977 1137 697 
          978 1138 698 
          549 1125 182 
          550 1126 181 
          1157 641 161 
          1158 642 131 
          13 807 12 
          808 106 105 
          489 1069 191 
          490 1070 192 
          577 1033 207 
          578 1034 208 
          599 975 379 
          600 976 380 
          30 900 29 
          72 899 71 
          1081 879 319 
          1082 880 320 
          715 1131 341 
          716 1132 342 
          529 1085 281 
          530 1086 282 
          554 951 354 
          553 952 353 
          545 775 359 
          546 776 360 
          1043 591 169 
          1044 592 170 
          977 651 333 
          978 652 334 
          152 952 151 
          122 951 121 
          805 567 173 
          806 568 175 
          680 772 374 
          679 771 373 
          691 793 421 
          692 794 422 
          110 960 109 
          140 959 139 
          959 557 355 
          960 558 356 
          1125 549 425 
          1126 550 426 
          707 581 315 
          708 582 316 
          507 877 265 
          508 878 266 
          543 849 205 
          544 850 206 
          1027 975 495 
          1028 976 496 
          162 1157 161 
          132 1158 131 
          1094 100 99 
          19 1093 18 
          559 1021 216 
          560 1022 215 
          1109 657 211 
          1110 658 212 
          1134 533 467 
          1133 534 468 
          605 936 158 
          606 935 128 
          859 895 311 
          860 896 312 
          136 709 135 
          166 710 165 
          885 785 487 
          886 786 488 
          995 817 337 
          996 818 338 
          156 715 155 
          126 716 125 
          80 1163 79 
          38 1164 37 
          538 1139 470 
          537 1140 469 
          1171 879 473 
          1172 880 474 
          664 1156 24 
          663 1155 94 
          1081 549 182 
          1082 550 181 
          119 741 118 
          149 742 148 
          113 743 112 
          143 744 142 
          573 983 223 
          574 984 224 
          891 545 359 
          892 546 360 
          1033 601 207 
          1034 602 208 
          950 541 81 
          949 542 39 
          819 671 349 
          820 672 350 
          739 831 207 
          740 832 208 
          851 773 441 
          852 774 442 
          879 1081 485 
          880 1082 486 
          1163 595 79 
          1164 596 37 
          567 1091 173 
          568 1092 175 
          1091 511 173 
          1092 512 175 
          796 888 390 
          795 887 389 
          1135 1001 531 
          1136 1002 532 
          1031 583 315 
          1032 584 316 
          589 837 407 
          590 838 408 
          1064 780 570 
          1063 779 569 
          84 1019 83 
          42 1020 41 
          157 1131 156 
          127 1132 126 
          757 909 367 
          758 910 368 
          900 764 29 
          899 763 71 
          575 877 507 
          576 878 508 
          527 1077 177 
          528 1078 179 
          637 759 209 
          638 760 210 
          827 891 359 
          828 892 360 
          1009 683 437 
          1010 684 438 
          879 859 216 
          880 860 215 
          34 810 33 
          76 809 75 
          555 823 291 
          556 824 292 
          1175 791 427 
          1176 792 428 
          585 1047 321 
          586 1048 322 
          597 877 339 
          598 878 340 
          531 867 209 
          532 868 210 
          809 545 351 
          810 546 352 
          587 889 405 
          588 890 406 
          931 1081 319 
          932 1082 320 
          961 551 203 
          962 552 204 
          1077 581 177 
          1078 582 179 
          983 573 375 
          984 574 376 
          540 957 366 
          539 958 365 
          659 759 313 
          660 760 314 
          963 505 371 
          964 506 372 
          987 541 373 
          988 542 374 
          813 735 245 
          814 736 246 
          888 570 390 
          887 569 389 
          877 597 265 
          878 598 266 
          967 875 201 
          968 876 202 
          933 565 235 
          934 566 236 
          853 547 295 
          854 548 296 
          901 593 413 
          902 594 414 
          879 1171 319 
          880 1172 320 
          817 995 433 
          818 996 434 
          16 1141 15 
          1142 103 102 
          985 855 185 
          986 856 186 
          1135 261 1001 
          1136 262 1002 
          599 927 227 
          600 928 228 
          623 1089 193 
          624 1090 194 
          549 1181 425 
          550 1182 426 
          1107 853 511 
          1108 854 512 
          895 859 485 
          896 860 486 
          567 805 313 
          568 806 314 
          545 867 351 
          546 868 352 
          1003 579 187 
          1004 580 188 
          843 751 409 
          844 752 410 
          659 893 229 
          660 894 230 
          992 665 145 
          991 666 115 
          815 835 221 
          816 836 222 
          821 925 305 
          822 926 306 
          741 904 118 
          742 903 148 
          659 1147 331 
          660 1148 332 
          849 543 345 
          850 544 346 
          897 595 369 
          898 596 370 
          1095 629 197 
          1096 630 198 
          541 987 81 
          542 988 39 
          729 965 383 
          730 966 384 
          975 1027 379 
          976 1028 380 
          625 909 301 
          626 910 302 
          26 784 25 
          783 93 92 
          653 1076 389 
          654 1075 390 
          609 1005 255 
          610 1006 256 
          621 1026 47 
          622 1025 89 
          913 785 317 
          914 786 318 
          1133 553 267 
          1134 554 268 
          1147 1079 331 
          1148 1080 332 
          858 507 265 
          857 508 266 
          853 1107 259 
          854 1108 260 
          82 950 81 
          40 949 39 
          1153 675 285 
          1154 676 287 
          761 884 393 
          762 883 394 
          831 577 207 
          832 578 208 
          557 1139 269 
          558 1140 270 
          785 913 487 
          786 914 488 
          79 897 78 
          37 898 36 
          1023 743 113 
          1024 744 143 
          641 923 161 
          642 924 131 
          981 547 377 
          982 548 378 
          697 719 180 
          698 720 178 
          611 913 317 
          612 914 318 
          793 691 303 
          794 692 304 
          623 1072 353 
          624 1071 354 
          555 990 382 
          556 989 381 
          583 1031 271 
          584 1032 272 
          603 1149 385 
          604 1150 386 
          1149 603 171 
          1150 604 172 
          937 847 345 
          938 848 346 
          1107 633 259 
          1108 635 260 
          595 897 79 
          596 898 37 
          887 795 323 
          888 796 324 
          839 565 293 
          840 566 294 
          1087 509 393 
          1088 510 394 
          781 717 425 
          782 718 426 
          534 1133 267 
          533 1134 268 
          549 931 275 
          550 932 276 
          565 1059 403 
          566 1060 404 
          521 1124 398 
          522 1123 397 
          1083 629 355 
          1084 630 356 
          1115 523 401 
          1116 524 402 
          943 1163 373 
          944 1164 374 
          653 825 365 
          654 826 366 
          1117 599 379 
          1118 600 380 
          647 1079 169 
          648 1080 170 
          1091 567 411 
          1092 568 412 
          919 677 231 
          920 678 232 
          35 776 34 
          77 775 76 
          1139 538 269 
          1140 537 270 
          906 640 344 
          905 639 343 
          771 829 219 
          772 830 220 
          47 1026 46 
          89 1025 88 
          543 881 345 
          544 882 346 
          783 663 93 
          784 664 25 
          683 992 146 
          684 991 116 
          535 1047 263 
          536 1048 264 
          1077 527 395 
          1078 528 396 
          577 1129 261 
          578 1130 262 
          533 1022 325 
          534 1021 326 
          1081 931 549 
          1082 932 550 
          1017 1045 515 
          1018 1046 516 
          699 1129 343 
          700 1130 344 
          779 609 213 
          780 610 214 
          835 925 221 
          836 926 222 
          907 655 174 
          908 656 176 
          942 661 387 
          941 662 388 
          1029 538 328 
          1030 537 327 
          1072 623 267 
          1071 624 268 
          1062 622 10 
          1061 621 108 
          601 845 207 
          602 846 208 
          1087 631 200 
          1088 632 199 
          581 1077 395 
          582 1078 396 
          1141 847 15 
          1142 848 103 
          601 1033 285 
          602 1034 287 
          857 668 508 
          858 667 507 
          599 811 301 
          600 812 302 
          629 1083 269 
          630 1084 270 
          923 661 160 
          924 662 130 
          671 819 321 
          672 820 322 
          1085 563 281 
          1086 564 282 
          633 1053 259 
          635 1054 260 
          809 775 545 
          810 776 546 
          859 879 485 
          860 880 486 
          969 661 305 
          970 662 306 
          661 969 387 
          662 970 388 
          519 1105 409 
          520 1106 410 
          915 789 237 
          916 790 238 
          909 625 367 
          910 626 368 
          1113 677 347 
          1114 678 348 
          997 719 471 
          998 720 472 
          735 813 385 
          736 814 386 
          1163 943 595 
          1164 944 596 
          1071 554 354 
          1072 553 353 
          995 739 207 
          996 740 208 
          605 942 387 
          606 941 388 
          81 987 80 
          39 988 38 
          1056 723 405 
          1055 724 406 
          875 967 493 
          876 968 494 
          1011 615 357 
          1012 616 358 
          799 623 193 
          800 624 194 
          957 540 19 
          958 539 99 
          651 977 180 
          652 978 178 
          1043 1113 347 
          1044 1114 348 
          557 1083 355 
          558 1084 356 
          641 1157 363 
          642 1158 364 
          629 797 197 
          630 798 198 
          913 611 183 
          914 612 184 
          615 1011 299 
          616 1012 300 
          649 1105 195 
          650 1106 196 
          631 1087 393 
          632 1088 394 
          640 906 32 
          639 905 74 
          1100 945 466 
          1099 946 465 
          980 1060 248 
          979 1059 247 
          769 1050 334 
          770 1049 333 
          11 1062 10 
          1061 108 107 
          633 1107 411 
          635 1108 412 
          673 1065 513 
          674 1066 514 
          952 643 353 
          951 644 354 
          693 971 335 
          694 972 336 
          807 1165 12 
          808 1166 106 
          878 576 340 
          877 575 339 
          975 711 495 
          976 712 496 
          1045 651 180 
          1046 652 178 
          603 1039 171 
          604 1040 172 
          553 1072 267 
          554 1071 268 
          679 871 329 
          680 872 330 
          645 959 355 
          646 960 356 
          745 1069 413 
          746 1070 414 
          615 1165 357 
          616 1166 358 
          563 1085 341 
          564 1086 342 
          655 1027 174 
          656 1028 176 
          875 1101 273 
          876 1102 274 
          813 1101 385 
          814 1102 386 
          1025 589 88 
          1026 590 46 
          965 729 177 
          966 730 179 
          1076 653 97 
          1075 654 21 
          1083 557 269 
          1084 558 270 
          893 659 313 
          894 660 314 
          807 863 357 
          808 864 358 
          711 975 227 
          712 976 228 
          980 687 334 
          979 688 333 
          643 952 152 
          644 951 122 
          863 807 455 
          864 808 456 
          959 645 139 
          960 646 109 
          835 815 431 
          836 816 432 
          657 947 289 
          658 948 290 
          1105 649 409 
          1106 650 410 
          1050 609 450 
          1049 610 449 
          769 825 213 
          770 826 214 
          1142 613 430 
          1141 614 429 
          958 99 98 
          20 957 19 
          1147 659 229 
          1148 660 230 
          1181 549 275 
          1182 550 276 
          829 633 219 
          830 635 220 
          631 1111 200 
          632 1112 199 
          74 905 73 
          32 906 31 
          148 903 147 
          118 904 117 
          953 819 349 
          954 820 350 
          154 1123 8 
          124 1124 4 
          1014 555 382 
          1013 556 381 
          725 1017 515 
          726 1018 516 
          1045 1017 403 
          1046 1018 404 
          871 655 329 
          872 656 330 
          168 1116 167 
          138 1115 137 
          665 992 399 
          666 991 400 
          947 657 349 
          948 658 350 
          984 1068 440 
          983 1067 439 
          639 1177 351 
          640 1178 352 
          651 979 333 
          652 980 334 
          671 1039 349 
          672 1040 350 
          891 637 209 
          892 638 210 
          669 865 187 
          670 866 188 
          845 995 207 
          846 996 208 
          1153 1043 347 
          1154 1044 348 
          581 1031 315 
          582 1032 316 
          1011 607 299 
          1012 608 300 
          973 1104 451 
          974 1103 452 
          614 1141 16 
          613 1142 102 
          775 809 76 
          776 810 34 
          1111 627 200 
          1112 628 199 
          947 603 289 
          948 604 290 
          161 923 160 
          131 924 130 
          801 961 203 
          802 962 204 
          158 936 157 
          128 935 127 
          1179 571 445 
          1180 572 446 
          1076 97 96 
          22 1075 21 
          871 679 239 
          872 680 240 
          667 858 363 
          668 857 364 
          621 1170 108 
          1170 621 47 
          622 1169 10 
          1169 622 89 
          643 911 353 
          644 912 354 
          1039 671 171 
          1040 672 172 
          634 1007 219 
          636 1008 220 
          1101 875 493 
          1102 876 494 
          699 1001 261 
          700 1002 262 
          1157 667 363 
          1158 668 364 
          911 643 522 
          912 644 521 
          753 933 499 
          754 934 500 
          801 713 323 
          802 714 324 
          1065 657 289 
          1066 658 290 
          945 1100 244 
          946 1099 243 
          921 645 355 
          922 646 356 
          1043 1153 591 
          1044 1154 592 
          645 921 523 
          646 922 524 
          87 1058 86 
          45 1057 44 
          615 1062 11 
          616 1061 107 
          992 683 399 
          991 684 400 
          1079 647 331 
          1080 648 332 
          1129 831 343 
          1130 832 344 
          675 1153 347 
          676 1154 348 
          703 1037 491 
          704 1038 492 
          1067 983 375 
          1068 984 376 
          591 1153 285 
          592 1154 287 
          825 769 365 
          826 770 366 
          789 915 415 
          790 916 416 
          1133 869 553 
          1134 870 554 
          707 919 415 
          708 920 416 
          146 992 145 
          116 991 115 
          815 993 431 
          816 994 432 
          873 1139 557 
          874 1140 558 
          705 1051 174 
          706 1052 176 
          1161 685 283 
          1162 686 284 
          619 1161 283 
          620 1162 284 
          1067 731 439 
          1068 732 440 
          1155 663 419 
          1156 664 420 
          763 899 337 
          764 900 338 
          881 1127 225 
          882 1128 226 
          810 1178 33 
          809 1177 75 
          805 893 313 
          806 894 314 
          1027 655 379 
          1028 656 380 
          739 995 337 
          740 996 338 
          961 801 419 
          962 802 420 
          625 1019 367 
          626 1020 368 
          731 1067 185 
          732 1068 186 
          677 1113 231 
          678 1114 232 
          651 1045 403 
          652 1046 404 
          144 1024 143 
          114 1023 113 
          1104 973 241 
          1103 974 242 
          1173 619 245 
          1174 620 246 
          1051 681 174 
          1052 682 176 
          1169 89 0 
          1170 47 2 
          108 1170 2 
          10 1169 0 
          687 980 248 
          688 979 247 
          681 1051 307 
          682 1052 308 
          1015 695 371 
          1016 696 372 
          1017 725 235 
          1018 726 236 
          1145 681 307 
          1146 682 308 
          927 737 477 
          928 738 478 
          963 725 505 
          964 726 506 
          985 835 431 
          986 836 432 
          1089 587 405 
          1090 588 406 
          1039 947 349 
          1040 948 350 
          627 1111 383 
          628 1112 384 
          721 931 319 
          722 932 320 
          1015 929 475 
          1016 930 476 
          749 897 369 
          750 898 370 
          1001 699 351 
          1002 700 352 
          1097 1073 257 
          1098 1074 258 
          657 1109 349 
          658 1110 350 
          695 1015 263 
          696 1016 264 
          673 1035 211 
          674 1036 212 
          889 1056 405 
          890 1055 406 
          667 1157 162 
          668 1158 132 
          1118 872 240 
          1117 871 239 
          893 805 441 
          894 806 442 
          593 1095 413 
          594 1096 414 
          697 1167 309 
          698 1168 310 
          1122 903 742 
          1121 904 741 
          865 1003 187 
          866 1004 188 
          1079 1147 501 
          1080 1148 502 
          685 1161 423 
          686 1162 424 
          837 1035 407 
          838 1036 408 
          1127 819 225 
          1128 820 226 
          1129 699 261 
          1130 700 262 
          1069 901 413 
          1070 902 414 
          909 737 301 
          910 738 302 
          1159 681 377 
          1160 682 378 
          733 1089 405 
          734 1090 406 
          943 771 219 
          944 772 220 
          771 943 373 
          772 944 374 
          713 887 323 
          714 888 324 
          981 723 189 
          982 724 190 
          1037 703 463 
          1038 704 464 
          1175 1097 257 
          1176 1098 258 
          971 747 335 
          972 748 336 
          1073 773 257 
          1074 774 258 
          1089 733 193 
          1090 734 194 
          1091 1107 511 
          1092 1108 512 
          723 1056 189 
          724 1055 190 
          681 1145 377 
          682 1146 378 
          897 749 78 
          898 750 36 
          1095 755 413 
          1096 756 414 
          745 989 191 
          746 990 192 
          1171 721 319 
          1172 722 320 
          1143 617 427 
          1144 618 428 
          929 1015 371 
          930 1016 372 
          1179 813 245 
          1180 814 246 
          755 1095 197 
          756 1096 198 
          683 1009 399 
          684 1010 400 
          779 1005 609 
          780 1006 610 
          1007 943 219 
          1008 944 220 
          717 1125 425 
          718 1126 426 
          735 1173 245 
          736 1174 246 
          1167 697 381 
          1168 698 382 
          1069 745 191 
          1070 746 192 
          711 1181 275 
          712 1182 276 
          773 1073 421 
          774 1074 422 
          813 1179 445 
          814 1180 446 
          1113 1043 503 
          1114 1044 504 
          1003 865 443 
          1004 866 444 
          1117 811 599 
          1118 812 600 
          1005 779 395 
          1006 780 396 
          723 1145 307 
          724 1146 308 
          831 1129 577 
          832 1130 578 
          725 963 235 
          726 964 236 
          939 1099 465 
          940 1100 466 
          1131 715 156 
          1132 716 126 
          1173 735 423 
          1174 736 424 
          697 1137 381 
          698 1138 382 
          1116 940 167 
          1115 939 137 
          955 1123 154 
          956 1124 124 
          1167 745 309 
          1168 746 310 
          768 1057 408 
          767 1058 407 
          1103 956 452 
          1104 955 451 
          1099 939 401 
          1100 940 402 
          956 1103 398 
          955 1104 397 
          1181 711 425 
          1182 712 426 
          779 1063 395 
          780 1064 396 
          1143 791 195 
          1144 792 196 
          983 1041 223 
          984 1042 224 
          925 821 221 
          926 822 222 
          1165 807 357 
          1166 808 358 
          1107 1091 411 
          1108 1092 412 
          1009 861 399 
          1010 862 400 
          993 815 361 
          994 816 362 
          835 985 375 
          836 986 376 
          1075 796 390 
          1076 795 389 
          839 1059 565 
          840 1060 566 
          789 1119 237 
          790 1120 238 
          791 1143 427 
          792 1144 428 
          1067 985 185 
          1068 986 186 
          1058 767 86 
          1057 768 44 
          1073 731 421 
          1074 732 422 
          1151 1013 381 
          1152 1014 382 
          1104 833 397 
          1103 834 398 
          841 1099 401 
          842 1100 402 
          1137 977 449 
          1138 978 450 
          1001 867 531 
          1002 868 532 
          795 1076 96 
          796 1075 22 
          819 953 225 
          820 954 226 
          1127 881 543 
          1128 882 544 
          1053 829 435 
          1054 830 436 
          965 915 383 
          966 916 384 
          867 1001 351 
          868 1002 352 
          1014 823 555 
          1013 824 556 
          788 1155 419 
          787 1156 420 
          1059 839 247 
          1060 840 248 
          947 1039 603 
          948 1040 604 
          995 845 433 
          996 846 434 
          1137 1151 381 
          1138 1152 382 
          981 1145 723 
          982 1146 724 
          833 1104 241 
          834 1103 242 
          1119 789 417 
          1120 790 418 
          1149 735 385 
          1150 736 386 
          1175 851 391 
          1176 852 392 
          1100 842 244 
          1099 841 243 
          1041 983 439 
          1042 984 440 
          791 1175 391 
          792 1176 392 
          829 1053 633 
          830 1054 635 
          1167 989 745 
          1168 990 746 
          1041 1097 427 
          1042 1098 428 
          819 1127 321 
          820 1128 322 
          799 1171 473 
          800 1172 474 
          861 1009 233 
          862 1010 234 
          847 1141 429 
          848 1142 430 
          1097 1041 439 
          1098 1042 440 
          999 1159 377 
          1000 1160 378 
          811 1117 239 
          812 1118 240 
          1177 809 351 
          1178 810 352 
          851 1175 257 
          852 1176 258 
          1056 889 483 
          1055 890 484 
          907 1159 435 
          908 1160 436 
          915 965 415 
          916 966 416 
          1121 741 325 
          1122 742 326 
          1109 953 349 
          1110 954 350 
          901 1069 489 
          902 1070 490 
          823 1014 255 
          824 1013 256 
          985 1067 375 
          986 1068 376 
          953 1109 453 
          954 1110 454 
          1053 999 259 
          1054 1000 260 
          870 1134 467 
          869 1133 468 
          1139 873 470 
          1140 874 469 
          855 1119 417 
          856 1120 418 
          1173 1161 619 
          1174 1162 620 
          999 1053 435 
          1000 1054 436 
          987 1163 80 
          988 1164 38 
          939 1115 401 
          940 1116 402 
          1123 955 397 
          1124 956 398 
          1163 987 373 
          1164 988 374 
          1145 981 377 
          1146 982 378 
          903 1122 437 
          904 1121 438 
          1161 1173 423 
          1162 1174 424 
          989 1167 381 
          990 1168 382 
          1159 999 435 
          1160 1000 436 
          1014 1152 255 
          1013 1151 256 
          1151 1137 449 
          1152 1138 450 
          1192 1200 62 
          1210 1192 62 
          1192 1209 96 
          1206 1192 96 
          1194 1215 1183 
          1193 1216 1184 
          1207 1215 1194 
          1208 1216 1193 
          52 1193 51 
          92 1194 91 
          1229 1193 52 
          1225 1194 92 
          1208 1193 1190 
          1207 1194 1187 
          1193 1229 1190 
          1194 1225 1187 
          1195 1205 1186 
          1196 1201 1189 
          1198 1203 1191 
          1197 1202 1187 
          1205 1195 1185 
          1199 1204 1190 
          1204 1199 1191 
          1203 1198 1189 
          1202 1197 1188 
          1201 1196 1185 
          99 1195 98 
          58 1196 57 
          94 1197 93 
          56 1198 55 
          54 1199 53 
          1211 70 3 
          69 1212 7 
          1213 49 6 
          48 1214 2 
          63 1210 62 
          96 1209 95 
          62 1200 61 
          1228 1208 1190 
          1223 1207 1187 
          90 1211 3 
          1212 68 7 
          50 1213 6 
          1214 108 2 
          1205 1220 1186 
          1201 1224 1189 
          1203 1227 1191 
          1202 1223 1187 
          1204 1228 1190 
          1221 1205 1185 
          1227 1204 1191 
          1224 1203 1189 
          1219 1201 1185 
          97 1206 96 
          1193 1218 51 
          1218 1193 1184 
          1194 1217 91 
          1217 1194 1183 
          1232 1202 1188 
          1195 1222 98 
          1222 1195 1186 
          1219 1195 99 
          1198 1226 1189 
          1226 1198 56 
          1221 1196 58 
          1195 1219 1185 
          1226 1196 1189 
          1197 1225 93 
          1198 1230 55 
          1199 1229 53 
          1230 1199 54 
          1225 1197 1187 
          1230 1198 1191 
          1196 1226 57 
          1229 1199 1190 
          1199 1230 1191 
          1196 1221 1185 
          1231 1197 94 
          1197 1231 1188 
          101 1201 100 
          65 1202 64 
          60 1205 59 
          103 1203 102 
          105 1204 104 
          1200 1206 1186 
          1206 1200 1192 
          67 1207 66 
          107 1208 106 
          1201 1219 100 
          1224 1201 101 
          1223 1202 65 
          1205 1221 59 
          1203 1224 102 
          1227 1203 103 
          1204 1227 104 
          1228 1204 105 
          1220 1205 60 
          1210 1209 1192 
          1209 1210 1188 
          1207 1223 66 
          1208 1228 106 
          1202 1232 64 
          1206 1222 1186 
          1215 1207 67 
          1216 1208 107 
          91 1217 90 
          68 1215 67 
          51 1218 50 
          108 1216 107 
          64 1232 63 
          95 1231 94 
          100 1219 99 
          57 1226 56 
          61 1220 60 
          98 1222 97 
          102 1224 101 
          66 1223 65 
          59 1221 58 
          93 1225 92 
          104 1227 103 
          106 1228 105 
          53 1229 52 
          55 1230 54 
          1222 1206 97 
          1220 1200 1186 
          1200 1220 61 
          70 1233 69 
          49 1234 48 
          1232 1210 63 
          1209 1231 95 
          1217 1211 90 
          1212 1215 68 
          1218 1213 50 
          1214 1216 108 
          1215 1212 1183 
          1211 1217 1183 
          1216 1214 1184 
          1213 1218 1184 
          1233 1211 1183 
          1212 1233 1183 
          1214 1234 1184 
          1234 1213 1184 
          1231 1209 1188 
          1210 1232 1188 
          1233 1212 69 
          1211 1233 70 
          1234 1214 48 
          1213 1234 49 
        </DataArray>
        <DataArray type="Int64" Name="offsets" format="ascii">
          3 6 9 12 15 18 21 24 27 30 33 36 39 42 45 48 51 54 57 60 63 66 69 72 75 78 81 84 87 90 93 96 99 102 105 108 111 114 117 120 123 126 129 132 135 138 141 144 147 150 153 156 159 162 165 168 171 174 177 180 183 186 189 192 195 198 201 204 207 210 213 216 219 222 225 228 231 234 237 240 243 246 249 252 255 258 261 264 267 270 273 276 279 282 285 288 291 294 297 300 303 306 309 312 315 318 321 324 327 330 333 336 339 342 345 348 351 354 357 360 363 366 369 372 375 378 381 384 387 390 393 396 399 402 405 408 411 414 417 420 423 426 429 432 435 438 441 444 447 450 453 456 459 462 465 468 471 474 477 480 483 486 489 492 495 498 501 504 507 510 513 516 519 522 525 528 531 534 537 540 543 546 549 552 555 558 561 564 567 570 573 576 579 582 585 588 591 594 597 600 603 606 609 612 615 618 621 624 627 630 633 636 639 642 645 648 651 654 657 660 663 666 669 672 675 678 681 684 687 690 693 696 699 702 705 708 711 714 717 720 723 726 729 732 735 738 741 744 747 750 753 756 759 762 765 768 771 774 777 780 783 786 789 792 795 798 801 804 807 810 813 816 819 822 825 828 831 834 837 840 843 846 849 852 855 858 861 864 867 870 873 876 879 882 885 888 891 894 897 900 903 906 909 912 915 918 921 924 927 930 933 936 939 942 945 948 951 954 957 960 963 966 969 972 975 978 981 984 987 990 993 996 999 1002 1005 1008 1011 1014 1017 1020 1023 1026 1029 1032 1035 1038 1041 1044 1047 1050 1053 1056 1059 1062 1065 1068 1071 1074 1077 1080 1083 1086 1089 1092 1095 1098 1101 1104 1107 1110 1113 1116 1119 1122 1125 1128 1131 1134 1137 1140 1143 1146 1149 1152 1155 1158 1161 1164 1167 1170 1173 1176 1179 1182 1185 1188 1191 1194 1197 1200 1203 1206 1209 1212 1215 1218 1221 1224 1227 1230 1233 1236 1239 1242 1245 1248 1251 1254 1257 1260 1263 1266 1269 1272 1275 1278 1281 1284 1287 1290 1293 1296 1299 1302 1305 1308 1311 1314 1317 1320 1323 1326 1329 1332 1335 1338 1341 1344 1347 1350 1353 1356 1359 1362 1365 1368 1371 1374 1377 1380 1383 1386 1389 1392 1395 1398 1401 1404 1407 1410 1413 1416 1419 1422 1425 1428 1431 1434 1437 1440 1443 1446 1449 1452 1455 1458 1461 1464 1467 1470 1473 1476 1479 1482 1485 1488 1491 1494 1497 1500 1503 1506 1509 1512 1515 1518 1521 1524 1527 1530 1533 1536 1539 1542 1545 1548 1551 1554 1557 1560 1563 1566 1569 1572 1575 1578 1581 1584 1587 1590 1593 1596 1599 1602 1605 1608 1611 1614 1617 1620 1623 1626 1629 1632 1635 1638 1641 1644 1647 1650 1653 1656 1659 1662 1665 1668 1671 1674 1677 1680 1683 1686 1689 1692 1695 1698 1701 1704 1707 1710 1713 1716 1719 1722 1725 1728 1731 1734 1737 1740 1743 1746 1749 1752 1755 1758 1761 1764 1767 1770 1773 1776 1779 1782 1785 1788 1791 1794 1797 1800 1803 1806 1809 1812 1815 1818 1821 1824 1827 1830 1833 1836 1839 1842 1845 1848 1851 1854 1857 1860 1863 1866 1869 1872 1875 1878 1881 1884 1887 1890 1893 1896 1899 1902 1905 1908 1911 1914 1917 1920 1923 1926 1929 1932 1935 1938 1941 1944 1947 1950 1953 1956 1959 1962 1965 1968 1971 1974 1977 1980 1983 1986 1989 1992 1995 1998 2001 2004 2007 2010 2013 2016 2019 2022 2025 2028 2031 2034 2037 2040 2043 2046 2049 2052 2055 2058 2061 2064 2067 2070 2073 2076 2079 2082 2085 2088 2091 2094 2097 2100 2103 2106 2109 2112 2115 2118 2121 2124 2127 2130 2133 2136 2139 2142 2145 2148 2151 2154 2157 2160 2163 2166 2169 2172 2175 2178 2181 2184 2187 2190 2193 2196 2199 2202 2205 2208 2211 2214 2217 2220 2223 2226 2229 2232 2235 2238 2241 2244 2247 2250 2253 2256 2259 2262 2265 2268 2271 2274 2277 2280 2283 2286 2289 2292 2295 2298 2301 2304 2307 2310 2313 2316 2319 2322 2325 2328 2331 2334 2337 2340 2343 2346 2349 2352 2355 2358 2361 2364 2367 2370 2373 2376 2379 2382 2385 2388 2391 2394 2397 2400 2403 2406 2409 2412 2415 2418 2421 2424 2427 2430 2433 2436 2439 2442 2445 2448 2451 2454 2457 2460 2463 2466 2469 2472 2475 2478 2481 2484 2487 2490 2493 2496 2499 2502 2505 2508 2511 2514 2517 2520 2523 2526 2529 2532 2535 2538 2541 2544 2547 2550 2553 2556 2559 2562 2565 2568 2571 2574 2577 2580 2583 2586 2589 2592 2595 2598 2601 2604 2607 2610 2613 2616 2619 2622 2625 2628 2631 2634 2637 2640 2643 2646 2649 2652 2655 2658 2661 2664 2667 2670 2673 2676 2679 2682 2685 2688 2691 2694 2697 2700 2703 2706 2709 2712 2715 2718 2721 2724 2727 2730 2733 2736 2739 2742 2745 2748 2751 2754 2757 2760 2763 2766 2769 2772 2775 2778 2781 2784 2787 2790 2793 2796 2799 2802 2805 2808 2811 2814 2817 2820 2823 2826 2829 2832 2835 2838 2841 2844 2847 2850 2853 2856 2859 2862 2865 2868 2871 2874 2877 2880 2883 2886 2889 2892 2895 2898 2901 2904 2907 2910 2913 2916 2919 2922 2925 2928 2931 2934 2937 2940 2943 2946 2949 2952 2955 2958 2961 2964 2967 2970 2973 2976 2979 2982 2985 2988 2991 2994 2997 3000 3003 3006 3009 3012 3015 3018 3021 3024 3027 3030 3033 3036 3039 3042 3045 3048 3051 3054 3057 3060 3063 3066 3069 3072 3075 3078 3081 3084 3087 3090 3093 3096 3099 3102 3105 3108 3111 3114 3117 3120 3123 3126 3129 3132 3135 3138 3141 3144 3147 3150 3153 3156 3159 3162 3165 3168 3171 3174 3177 3180 3183 3186 3189 3192 3195 3198 3201 3204 3207 3210 3213 3216 3219 3222 3225 3228 3231 3234 3237 3240 3243 3246 3249 3252 3255 3258 3261 3264 3267 3270 3273 3276 3279 3282 3285 3288 3291 3294 3297 3300 3303 3306 3309 3312 3315 3318 3321 3324 3327 3330 3333 3336 3339 3342 3345 3348 3351 3354 3357 3360 3363 3366 3369 3372 3375 3378 3381 3384 3387 3390 3393 3396 3399 3402 3405 3408 3411 3414 3417 3420 3423 3426 3429 3432 3435 3438 3441 3444 3447 3450 3453 3456 3459 3462 3465 3468 3471 3474 3477 3480 3483 3486 3489 3492 3495 3498 3501 3504 3507 3510 3513 3516 3519 3522 3525 3528 3531 3534 3537 3540 3543 3546 3549 3552 3555 3558 3561 3564 3567 3570 3573 3576 3579 3582 3585 3588 3591 3594 3597 3600 3603 3606 3609 3612 3615 3618 3621 3624 3627 3630 3633 3636 3639 3642 3645 3648 3651 3654 3657 3660 3663 3666 3669 3672 3675 3678 3681 3684 3687 3690 3693 3696 3699 3702 3705 3708 3711 3714 3717 3720 3723 3726 3729 3732 3735 3738 3741 3744 3747 3750 3753 3756 3759 3762 3765 3768 3771 3774 3777 3780 3783 3786 3789 3792 3795 3798 3801 3804 3807 3810 3813 3816 3819 3822 3825 3828 3831 3834 3837 3840 3843 3846 3849 3852 3855 3858 3861 3864 3867 3870 3873 3876 3879 3882 3885 3888 3891 3894 3897 3900 3903 3906 3909 3912 3915 3918 3921 3924 3927 3930 3933 3936 3939 3942 3945 3948 3951 3954 3957 3960 3963 3966 3969 3972 3975 3978 3981 3984 3987 3990 3993 3996 3999 4002 4005 4008 4011 4014 4017 4020 4023 4026 4029 4032 4035 4038 4041 4044 4047 4050 4053 4056 4059 4062 4065 4068 4071 4074 4077 4080 4083 4086 4089 4092 4095 4098 4101 4104 4107 4110 4113 4116 4119 4122 4125 4128 4131 4134 4137 4140 4143 4146 4149 4152 4155 4158 4161 4164 4167 4170 4173 4176 4179 4182 4185 4188 4191 4194 4197 4200 4203 4206 4209 4212 4215 4218 4221 4224 4227 4230 4233 4236 4239 4242 4245 4248 4251 4254 4257 4260 4263 4266 4269 4272 4275 4278 4281 4284 4287 4290 4293 4296 4299 4302 4305 4308 4311 4314 4317 4320 4323 4326 4329 4332 4335 4338 4341 4344 4347 4350 4353 4356 4359 4362 4365 4368 4371 4374 4377 4380 4383 4386 4389 4392 4395 4398 4401 4404 4407 4410 4413 4416 4419 4422 4425 4428 4431 4434 4437 4440 4443 4446 4449 4452 4455 4458 4461 4464 4467 4470 4473 4476 4479 4482 4485 4488 4491 4494 4497 4500 4503 4506 4509 4512 4515 4518 4521 4524 4527 4530 4533 4536 4539 4542 4545 4548 4551 4554 4557 4560 4563 4566 4569 4572 4575 4578 4581 4584 4587 4590 4593 4596 4599 4602 4605 4608 4611 4614 4617 4620 4623 4626 4629 4632 4635 4638 4641 4644 4647 4650 4653 4656 4659 4662 4665 4668 4671 4674 4677 4680 4683 4686 4689 4692 4695 4698 4701 4704 4707 4710 4713 4716 4719 4722 4725 4728 4731 4734 4737 4740 4743 4746 4749 4752 4755 4758 4761 4764 4767 4770 4773 4776 4779 4782 4785 4788 4791 4794 4797 4800 4803 4806 4809 4812 4815 4818 4821 4824 4827 4830 4833 4836 4839 4842 4845 4848 4851 4854 4857 4860 4863 4866 4869 4872 4875 4878 4881 4884 4887 4890 4893 4896 4899 4902 4905 4908 4911 4914 4917 4920 4923 4926 4929 4932 4935 4938 4941 4944 4947 4950 4953 4956 4959 4962 4965 4968 4971 4974 4977 4980 4983 4986 4989 4992 4995 4998 5001 5004 5007 5010 5013 5016 5019 5022 5025 5028 5031 5034 5037 5040 5043 5046 5049 5052 5055 5058 5061 5064 5067 5070 5073 5076 5079 5082 5085 5088 5091 5094 5097 5100 5103 5106 5109 5112 5115 5118 5121 5124 5127 5130 5133 5136 5139 5142 5145 5148 5151 5154 5157 5160 5163 5166 5169 5172 5175 5178 5181 5184 5187 5190 5193 5196 5199 5202 5205 5208 5211 5214 5217 5220 5223 5226 5229 5232 5235 5238 5241 5244 5247 5250 5253 5256 5259 5262 5265 5268 5271 5274 5277 5280 5283 5286 5289 5292 5295 5298 5301 5304 5307 5310 5313 5316 5319 5322 5325 5328 5331 5334 5337 5340 5343 5346 5349 5352 5355 5358 5361 5364 5367 5370 5373 5376 5379 5382 5385 5388 5391 5394 5397 5400 5403 5406 5409 5412 5415 5418 5421 5424 5427 5430 5433 5436 5439 5442 5445 5448 5451 5454 5457 5460 5463 5466 5469 5472 5475 5478 5481 5484 5487 5490 5493 5496 5499 5502 5505 5508 5511 5514 5517 5520 5523 5526 5529 5532 5535 5538 5541 5544 5547 5550 5553 5556 5559 5562 5565 5568 5571 5574 5577 5580 5583 5586 5589 5592 5595 5598 5601 5604 5607 5610 5613 5616 5619 5622 5625 5628 5631 5634 5637 5640 5643 5646 5649 5652 5655 5658 5661 5664 5667 5670 5673 5676 5679 5682 5685 5688 5691 5694 5697 5700 5703 5706 5709 5712 5715 5718 5721 5724 5727 5730 5733 5736 5739 5742 5745 5748 5751 5754 5757 5760 5763 5766 5769 5772 5775 5778 5781 5784 5787 5790 5793 5796 5799 5802 5805 5808 5811 5814 5817 5820 5823 5826 5829 5832 5835 5838 5841 5844 5847 5850 5853 5856 5859 5862 5865 5868 5871 5874 5877 5880 5883 5886 5889 5892 5895 5898 5901 5904 5907 5910 5913 5916 5919 5922 5925 5928 5931 5934 5937 5940 5943 5946 5949 5952 5955 5958 5961 5964 5967 5970 5973 5976 5979 5982 5985 5988 5991 5994 5997 6000 6003 6006 6009 6012 6015 6018 6021 6024 6027 6030 6033 6036 6039 6042 6045 6048 6051 6054 6057 6060 6063 6066 6069 6072 6075 6078 6081 6084 6087 6090 6093 6096 6099 6102 6105 6108 6111 6114 6117 6120 6123 6126 6129 6132 6135 6138 6141 6144 6147 6150 6153 6156 6159 6162 6165 6168 6171 6174 6177 6180 6183 6186 6189 6192 6195 6198 6201 6204 6207 6210 6213 6216 6219 6222 6225 6228 6231 6234 6237 6240 6243 6246 6249 6252 6255 6258 6261 6264 6267 6270 6273 6276 6279 6282 6285 6288 6291 6294 6297 6300 6303 6306 6309 6312 6315 6318 6321 6324 6327 6330 6333 6336 6339 6342 6345 6348 6351 6354 6357 6360 6363 6366 6369 6372 6375 6378 6381 6384 6387 6390 6393 6396 6399 6402 6405 6408 6411 6414 6417 6420 6423 6426 6429 6432 6435 6438 6441 6444 6447 6450 6453 6456 6459 6462 6465 6468 6471 6474 6477 6480 6483 6486 6489 6492 6495 6498 6501 6504 6507 6510 6513 6516 6519 6522 6525 6528 6531 6534 6537 6540 6543 6546 6549 6552 6555 6558 6561 6564 6567 6570 6573 6576 6579 6582 6585 6588 6591 6594 6597 6600 6603 6606 6609 6612 6615 6618 6621 6624 6627 6630 6633 6636 6639 6642 6645 6648 6651 6654 6657 6660 6663 6666 6669 6672 6675 6678 6681 6684 6687 6690 6693 6696 6699 6702 6705 6708 6711 6714 6717 6720 6723 6726 6729 6732 6735 6738 6741 6744 6747 6750 6753 6756 6759 6762 6765 6768 6771 6774 6777 6780 6783 6786 6789 6792 6795 6798 6801 6804 6807 6810 6813 6816 6819 6822 6825 6828 6831 6834 6837 6840 6843 6846 6849 6852 6855 6858 6861 6864 6867 6870 6873 6876 6879 6882 6885 6888 6891 6894 6897 6900 6903 6906 6909 6912 6915 6918 6921 6924 6927 6930 6933 6936 6939 6942 6945 6948 6951 6954 6957 6960 
        </DataArray>
        <DataArray type="UInt8" Name="types" format="ascii">
          5 5 5 5 5 5 5 5 5 5 5 5 5 5 5 5 5 5 5 5 5 5 5 5 5 5 5 5 5 5 5 5 5 5 5 5 5 5 5 5 5 5 5 5 5 5 5 5 5 5 5 5 5 5 5 5 5 5 5 5 5 5 5 5 5 5 5 5 5 5 5 5 5 5 5 5 5 5 5 5 5 5 5 5 5 5 5 5 5 5 5 5 5 5 5 5 5 5 5 5 5 5 5 5 5 5 5 5 5 5 5 5 5 5 5 5 5 5 5 5 5 5 5 5 5 5 5 5 5 5 5 5 5 5 5 5 5 5 5 5 5 5 5 5 5 5 5 5 5 5 5 5 5 5 5 5 5 5 5 5 5 5 5 5 5 5 5 5 5 5 5 5 5 5 5 5 5 5 5 5 5 5 5 5 5 5 5 5 5 5 5 5 5 5 5 5 5 5 5 5 5 5 5 5 5 5 5 5 5 5 5 5 5 5 5 5 5 5 5 5 5 5 5 5 5 5 5 5 5 5 5 5 5 5 5 5 5 5 5 5 5 5 5 5 5 5 5 5 5 5 5 5 5 5 5 5 5 5 5 5 5 5 5 5 5 5 5 5 5 5 5 5 5 5 5 5 5 5 5 5 5 5 5 5 5 5 5 5 5 5 5 5 5 5 5 5 5 5 5 5 5 5 5 5 5 5 5 5 5 5 5 5 5 5 5 5 5 5 5 5 5 5 5 5 5 5 5 5 5 5 5 5 5 5 5 5 5 5 5 5 5 5 5 5 5 5 5 5 5 5 5 5 5 5 5 5 5 5 5 5 5 5 5 5 5 5 5 5 5 5 5 5 5 5 5 5 5 5 5 5 5 5 5 5 5 5 5 5 5 5 5 5 5 5 5 5 5 5 5 5 5 5 5 5 5 5 5 5 5 5 5 5 5 5 5 5 5 5 5 5 5 5 5 5 5 5 5 5 5 5 5 5 5 5 5 5 5 5 5 5 5 5 5 5 5 5 5 5 5 5 5 5 5 5 5 5 5 5 5 5 5 5 5 5 5 5 5 5 5 5 5 5 5 5 5 5 5 5 5 5 5 5 5 5 5 5 5 5 5 5 5 5 5 5 5 5 5 5 5 5 5 5 5 5 5 5 5 5 5 5 5 5 5 5 5 5 5 5 5 5 5 5 5 5 5 5 5 5 5 5 5 5 5 5 5 5 5 5 5 5 5 5 5 5 5 5 5 5 5 5 5 5 5 5 5 5 5 5 5 5 5 5 5 5 5 5 5 5 5 5 5 5 5 5 5 5 5 5 5 5 5 5 5 5 5 5 5 5 5 5 5 5 5 5 5 5 5 5 5 5 5 5 5 5 5 5 5 5 5 5 5 5 5 5 5 5 5 5 5 5 5 5 5 5 5 5 5 5 5 5 5 5 5 5 5 5 5 5 5 5 5 5 5 5 5 5 5 5 5 5 5 5 5 5 5 5 5 5 5 5 5 5 5 5 5 5 5 5 5 5 5 5 5 5 5 5 5 5 5 5 5 5 5 5 5 5 5 5 5 5 5 5 5 5 5 5 5 5 5 5 5 5 5 5 5 5 5 5 5 5 5 5 5 5 5 5 5 5 5 5 5 5 5 5 5 5 5 5 5 5 5 5 5 5 5 5 5 5 5 5 5 5 5 5 5 5 5 5 5 5 5 5 5 5 5 5 5 5 5 5 5 5 5 5 5 5 5 5 5 5 5 5 5 5 5 5 5 5 5 5 5 5 5 5 5 5 5 5 5 5 5 5 5 5 5 5 5 5 5 5 5 5 5 5 5 5 5 5 5 5 5 5 5 5 5 5 5 5 5 5 5 5 5 5 5 5 5 5 5 5 5 5 5 5 5 5 5 5 5 5 5 5 5 5 5 5 5 5 5 5 5 5 5 5 5 5 5 5 5 5 5 5 5 5 5 5 5 5 5 5 5 5 5 5 5 5 5 5 5 5 5 5 5 5 5 5 5 5 5 5 5 5 5 5 5 5 5 5 5 5 5 5 5 5 5 5 5 5 5 5 5 5 5 5 5 5 5 5 5 5 5 5 5 5 5 5 5 5 5 5 5 5 5 5 5 5 5 5 5 5 5 5 5 5 5 5 5 5 5 5 5 5 5 5 5 5 5 5 5 5 5 5 5 5 5 5 5 5 5 5 5 5 5 5 5 5 5 5 5 5 5 5 5 5 5 5 5 5 5 5 5 5 5 5 5 5 5 5 5 5 5 5 5 5 5 5 5 5 5 5 5 5 5 5 5 5 5 5 5 5 5 5 5 5 5 5 5 5 5 5 5 5 5 5 5 5 5 5 5 5 5 5 5 5 5 5 5 5 5 5 5 5 5 5 5 5 5 5 5 5 5 5 5 5 5 5 5 5 5 5 5 5 5 5 5 5 5 5 5 5 5 5 5 5 5 5 5 5 5 5 5 5 5 5 5 5 5 5 5 5 5 5 5 5 5 5 5 5 5 5 5 5 5 5 5 5 5 5 5 5 5 5 5 5 5 5 5 5 5 5 5 5 5 5 5 5 5 5 5 5 5 5 5 5 5 5 5 5 5 5 5 5 5 5 5 5 5 5 5 5 5 5 5 5 5 5 5 5 5 5 5 5 5 5 5 5 5 5 5 5 5 5 5 5 5 5 5 5 5 5 5 5 5 5 5 5 5 5 5 5 5 5 5 5 5 5 5 5 5 5 5 5 5 5 5 5 5 5 5 5 5 5 5 5 5 5 5 5 5 5 5 5 5 5 5 5 5 5 5 5 5 5 5 5 5 5 5 5 5 5 5 5 5 5 5 5 5 5 5 5 5 5 5 5 5 5 5 5 5 5 5 5 5 5 5 5 5 5 5 5 5 5 5 5 5 5 5 5 5 5 5 5 5 5 5 5 5 5 5 5 5 5 5 5 5 5 5 5 5 5 5 5 5 5 5 5 5 5 5 5 5 5 5 5 5 5 5 5 5 5 5 5 5 5 5 5 5 5 5 5 5 5 5 5 5 5 5 5 5 5 5 5 5 5 5 5 5 5 5 5 5 5 5 5 5 5 5 5 5 5 5 5 5 5 5 5 5 5 5 5 5 5 5 5 5 5 5 5 5 5 5 5 5 5 5 5 5 5 5 5 5 5 5 5 5 5 5 5 5 5 5 5 5 5 5 5 5 5 5 5 5 5 5 5 5 5 5 5 5 5 5 5 5 5 5 5 5 5 5 5 5 5 5 5 5 5 5 5 5 5 5 5 5 5 5 5 5 5 5 5 5 5 5 5 5 5 5 5 5 5 5 5 5 5 5 5 5 5 5 5 5 5 5 5 5 5 5 5 5 5 5 5 5 5 5 5 5 5 5 5 5 5 5 5 5 5 5 5 5 5 5 5 5 5 5 5 5 5 5 5 5 5 5 5 5 5 5 5 5 5 5 5 5 5 5 5 5 5 5 5 5 5 5 5 5 5 5 5 5 5 5 5 5 5 5 5 5 5 5 5 5 5 5 5 5 5 5 5 5 5 5 5 5 5 5 5 5 5 5 5 5 5 5 5 5 5 5 5 5 5 5 5 5 5 5 5 5 5 5 5 5 5 5 5 5 5 5 5 5 5 5 5 5 5 5 5 5 5 5 5 5 5 5 5 5 5 5 5 5 5 5 5 5 5 5 5 5 5 5 5 5 5 5 5 5 5 5 5 5 5 5 5 5 5 5 5 5 5 5 5 5 5 5 5 5 5 5 5 5 5 5 5 5 5 5 5 5 5 5 5 5 5 5 5 5 5 5 5 5 5 5 5 5 5 5 5 5 5 5 5 5 5 5 5 5 5 5 5 5 5 5 5 5 5 5 5 5 5 5 5 5 5 5 5 5 5 5 5 5 5 5 5 5 5 5 5 5 5 5 5 5 5 5 5 5 5 5 5 5 5 5 5 5 5 5 5 5 5 5 5 5 5 5 5 5 5 5 5 5 5 5 5 5 5 5 5 5 5 5 5 5 5 5 5 5 5 5 5 5 5 5 5 5 5 5 5 5 5 5 5 5 5 5 5 5 5 5 5 5 5 5 5 5 5 5 5 5 5 5 5 5 5 5 5 5 5 5 5 5 5 5 5 5 5 5 5 5 5 5 5 5 5 5 5 5 5 5 5 5 5 5 5 5 5 5 5 5 5 5 5 5 5 5 5 5 5 5 5 5 5 5 5 5 5 5 5 5 5 5 5 5 5 5 5 5 5 5 5 5 5 5 5 5 5 5 5 5 5 5 5 5 5 5 5 5 5 5 5 5 5 5 5 5 5 5 5 5 5 5 5 5 5 5 5 5 5 5 5 5 5 5 5 5 5 5 5 5 5 5 5 5 5 5 5 5 5 5 5 5 5 5 5 5 5 5 5 5 5 5 5 5 5 5 5 5 5 5 5 5 5 5 5 5 5 5 5 5 5 5 5 5 5 5 5 5 5 5 5 5 5 5 5 5 5 5 5 5 5 5 5 5 5 5 5 5 5 5 5 5 5 5 5 5 5 5 5 5 5 5 5 5 5 5 5 5 5 5 5 5 5 5 5 5 5 5 5 5 5 5 5 5 5 5 5 5 5 5 5 5 5 5 5 5 5 5 5 5 5 5 5 5 5 5 5 5 5 5 5 5 5 5 5 5 5 5 5 5 5 5 5 5 5 5 5 5 5 5 5 5 5 5 5 5 5 5 5 5 5 5 5 5 5 5 5 5 5 5 5 5 5 5 5 5 5 5 5 5 5 5 5 5 5 5 5 5 5 5 5 5 5 5 5 5 5 5 5 5 5 5 5 5 5 5 5 5 5 5 5 5 5 5 5 5 5 5 5 5 5 5 5 5 5 5 5 5 5 5 5 5 5 5 5 5 5 5 5 5 5 5 5 5 5 5 5 5 5 5 5 5 5 5 5 5 5 5 5 5 5 5 5 5 5 5 5 5 5 5 5 5 5 5 5 5 5 5 5 5 5 5 5 5 5 5 5 5 5 5 5 5 5 5 5 5 5 5 5 5 5 5 5 5 5 5 5 5 5 5 5 5 5 5 5 5 5 5 5 5 5 5 5 5 5 5 5 5 5 5 5 5 5 5 5 5 5 5 5 5 5 5 5 5 5 5 5 5 5 5 5 5 5 5 5 5 5 5 5 5 5 5 5 5 5 5 5 5 5 5 5 5 5 5 5 5 5 5 5 5 5 5 5 
        </DataArray>
      </Cells>
      <PointData Scalars="TEMPERATURE1">
        <DataArray type="Float64" Name="TEMPERATURE1" format="ascii">
          3.200000000000e+02 3.200000000000e+02 3.082841677364e+02 3.082849650975e+02 3.000000000000e+02 3.000000000000e+02 3.100000000000e+02 3.100000000000e+02 3.000000000000e+02 3.000000000000e+02 3.200000000000e+02 3.200000000000e+02 3.200000000000e+02 3.200000000000e+02 3.200000000000e+02 3.200000000000e+02 3.200000000000e+02 3.200000000000e+02 3.200000000000e+02 3.200000000000e+02 3.200000000000e+02 3.200000000000e+02 3.200000000000e+02 3.200000000000e+02 3.200000000000e+02 3.200000000000e+02 3.200000000000e+02 3.200000000000e+02 3.200000000000e+02 3.181448931516e+02 3.163182777702e+02 3.145438557321e+02 3.128510500618e+02 3.112662264105e+02 3.098288163681e+02 3.085657988404e+02 3.074824829294e+02 3.066276306719e+02 3.059828082425e+02 3.055724370787e+02 3.053592012056e+02 3.053365061796e+02 3.054652987888e+02 3.057367439479e+02 3.061092464852e+02 3.065713654311e+02 3.070986976315e+02 3.076746835966e+02 3.088461739659e+02 3.094201017847e+02 3.100000000000e+02 3.100000000000e+02 3.100000000000e+02 3.100000000000e+02 3.100000000000e+02 3.100000000000e+02 3.100000000000e+02 3.100000000000e+02 3.100000000000e+02 3.100000000000e+02 3.100000000000e+02 3.100000000000e+02 3.100000000000e+02 3.100000000000e+02 3.100000000000e+02 3.100000000000e+02 3.100000000000e+02 3.100000000000e+02 3.100000000000e+02 3.094202329179e+02 3.088466050316e+02 3.076738155330e+02 3.070987248897e+02 3.065722459227e+02 3.061110777003e+02 3.057327332874e+02 3.054670023931e+02 3.053380993719e+02 3.053557593597e+02 3.055719312960e+02 3.059826288564e+02 3.066282787300e+02 3.074866153957e+02 3.085638186508e+02 3.098266939646e+02 3.112719388577e+02 3.128488092150e+02 3.145430526718e+02 3.163190146976e+02 3.181474672714e+02 3.082736794598e+02 3.082385412886e+02 3.081842206419e+02 3.081155096269e+02 3.080375017348e+02 3.079564863640e+02 3.078810278534e+02 3.078208900012e+02 3.077799103267e+02 3.077665157079e+02 3.077797964266e+02 3.078204753082e+02 3.078818401017e+02 3.079552329988e+02 3.080359123859e+02 3.081170895215e+02 3.081853988944e+02 3.082389773218e+02 3.082725278400e+02 3.000000000000e+02 3.000000000000e+02 3.000000000000e+02 3.000000000000e+02 3.000000000000e+02 3.000000000000e+02 3.000000000000e+02 3.000000000000e+02 3.000000000000e+02 3.000000000000e+02 3.000000000000e+02 3.000000000000e+02 3.000000000000e+02 3.000000000000e+02 3.000000000000e+02 3.000000000000e+02 3.000000000000e+02 3.000000000000e+02 3.000000000000e+02 3.000000000000e+02 3.000000000000e+02 3.000000000000e+02 3.000000000000e+02 3.000000000000e+02 3.000000000000e+02 3.000000000000e+02 3.000000000000e+02 3.000000000000e+02 3.000000000000e+02 3.000000000000e+02 3.000000000000e+02 3.000000000000e+02 3.000000000000e+02 3.000000000000e+02 3.000000000000e+02 3.000000000000e+02 3.000000000000e+02 3.000000000000e+02 3.000000000000e+02 3.000000000000e+02 3.000000000000e+02 3.000000000000e+02 3.000000000000e+02 3.000000000000e+02 3.000000000000e+02 3.000000000000e+02 3.000000000000e+02 3.000000000000e+02 3.000000000000e+02 3.000000000000e+02 3.000000000000e+02 3.000000000000e+02 3.000000000000e+02 3.000000000000e+02 3.000000000000e+02 3.000000000000e+02 3.000000000000e+02 3.000000000000e+02 3.000000000000e+02 3.000000000000e+02 3.048647010935e+02 3.102248671572e+02 3.109747888141e+02 3.049996930390e+02 3.037875820999e+02 3.050257716874e+02 3.057557863703e+02 3.041757696052e+02 3.041168132550e+02 3.043818249441e+02 3.096137092363e+02 3.106982737990e+02 3.032432901395e+02 3.057747932310e+02 3.080609607385e+02 3.034777878147e+02 3.029958024728e+02 3.059704928278e+02 3.053442328621e+02 3.025667999937e+02 3.029305234688e+02 3.031275902002e+02 3.065061556071e+02 3.027277282202e+02 3.033008400557e+02 3.024877340753e+02 3.023472919150e+02 3.034473281752e+02 3.059722528423e+02 3.025085403737e+02 3.052754613875e+02 3.023121977091e+02 3.093799264713e+02 3.050374524877e+02 3.060670626810e+02 3.143344645256e+02 3.140925385241e+02 3.058515351411e+02 3.065088274521e+02 3.147918976592e+02 3.050900005454e+02 3.091667120997e+02 3.137666355359e+02 3.062028071626e+02 3.057306782819e+02 3.141750169720e+02 3.019194737514e+02 3.033469551856e+02 3.045049695216e+02 3.019803027527e+02 3.051097484287e+02 3.059168888654e+02 3.018089644147e+02 3.037356970952e+02 3.017337988508e+02 3.030921801440e+02 3.154046202114e+02 3.065300681222e+02 3.069386252622e+02 3.043544120653e+02 3.040034492618e+02 3.074201699708e+02 3.041805613452e+02 3.091964862270e+02 3.030354062435e+02 3.015513939258e+02 3.122869391628e+02 3.050591240543e+02 3.030677663564e+02 3.067185048567e+02 3.067587114026e+02 3.051698291243e+02 3.016718187216e+02 3.019802875713e+02 3.037006659708e+02 3.015788865358e+02 3.079934050092e+02 3.038769809190e+02 3.159962739325e+02 3.063665746906e+02 3.016241534547e+02 3.015725486953e+02 3.033298711148e+02 3.014038488435e+02 3.012598259645e+02 3.026743836237e+02 3.043686473616e+02 3.105607593906e+02 3.030974957111e+02 3.053462354796e+02 3.042030854524e+02 3.049272115173e+02 3.056611677071e+02 3.118673523360e+02 3.107835954231e+02 3.046845732913e+02 3.013320786411e+02 3.029428537938e+02 3.020425257538e+02 3.014065405263e+02 3.033297418343e+02 3.014218108433e+02 3.056346697721e+02 3.135959055832e+02 3.081993371992e+02 3.043520400440e+02 3.052049844310e+02 3.035326734091e+02 3.047734007195e+02 3.071191866549e+02 3.089953078771e+02 3.037545140332e+02 3.011369265789e+02 3.017882421087e+02 3.082511702671e+02 3.037338882783e+02 3.058405990650e+02 3.069736685200e+02 3.132076244388e+02 3.166017157273e+02 3.112485971818e+02 3.053768636840e+02 3.033371949013e+02 3.078905568332e+02 3.157976514716e+02 3.063578247837e+02 3.032790402912e+02 3.042201412158e+02 3.120960074069e+02 3.058373323807e+02 3.168676340452e+02 3.072284045405e+02 3.080927720221e+02 3.050192045154e+02 3.040287827827e+02 3.082533839516e+02 3.010543801618e+02 3.020584998440e+02 3.038452707798e+02 3.033397432280e+02 3.080528354826e+02 3.033386204578e+02 3.051511205771e+02 3.026990595644e+02 3.044302494859e+02 3.075412474249e+02 3.049655054643e+02 3.115378781557e+02 3.061928338725e+02 3.027879752381e+02 3.042110213800e+02 3.026850300767e+02 3.130923908820e+02 3.056340098487e+02 3.068079311883e+02 3.167567572432e+02 3.010489425141e+02 3.017862420153e+02 3.010621133578e+02 3.024027813800e+02 3.054543813187e+02 3.050607965632e+02 3.048176579756e+02 3.093184753588e+02 3.134632293844e+02 3.054307449069e+02 3.063226400781e+02 3.026969077452e+02 3.072403578182e+02 3.168854155434e+02 3.011233373824e+02 3.025701310615e+02 3.011127474965e+02 3.015234670640e+02 3.062465635225e+02 3.135514478942e+02 3.169551671424e+02 3.069451034771e+02 3.051881130027e+02 3.117188924877e+02 3.130277604305e+02 3.058015485982e+02 3.055775883002e+02 3.109018195161e+02 3.014388428352e+02 3.011531113291e+02 3.026303373663e+02 3.011118167311e+02 3.171250628430e+02 3.072151941476e+02 3.051901978982e+02 3.083345589446e+02 3.022192451106e+02 3.048408175738e+02 3.009609212466e+02 3.020121721749e+02 3.066615927747e+02 3.168192836624e+02 3.098007487719e+02 3.053698419293e+02 3.052450674306e+02 3.070231713463e+02 3.107949520728e+02 3.045658325050e+02 3.059048214462e+02 3.057205285888e+02 3.021634356014e+02 3.042224718487e+02 3.040111340999e+02 3.040201869631e+02 3.062600272197e+02 3.045947246592e+02 3.091698529619e+02 3.037912598922e+02 3.032510526399e+02 3.074252251558e+02 3.095302108871e+02 3.046033748784e+02 3.010304925467e+02 3.018317945651e+02 3.067790942687e+02 3.169566829945e+02 3.031384699600e+02 3.047797149997e+02 3.025060526757e+02 3.058733183959e+02 3.048433155655e+02 3.116429675029e+02 3.010467605017e+02 3.010972216158e+02 3.017821043201e+02 3.008701505423e+02 3.022041355698e+02 3.009341491431e+02 3.129553995921e+02 3.052552706844e+02 3.028293561895e+02 3.025152438352e+02 3.138650049755e+02 3.063450561395e+02 3.025198161641e+02 3.031950276078e+02 3.044630837777e+02 3.061167244021e+02 3.056891365468e+02 3.023807657048e+02 3.038684159730e+02 3.087376539628e+02 3.035924696797e+02 3.076475641355e+02 3.070767272313e+02 3.171819686530e+02 3.034470414139e+02 3.065365325644e+02 3.097838319545e+02 3.044891116679e+02 3.064087178898e+02 3.038407492884e+02 3.024240020206e+02 3.040016729552e+02 3.168717923754e+02 3.068037158722e+02 3.027008905077e+02 3.056804234929e+02 3.073876588918e+02 3.175788839705e+02 3.048229640819e+02 3.048405118584e+02 3.017765756547e+02 3.009411130750e+02 3.026461734039e+02 3.048507892082e+02 3.037708629337e+02 3.063992914189e+02 3.069185901853e+02 3.033998100778e+02 3.071756006918e+02 3.038010092792e+02 3.054927049217e+02 3.118134306401e+02 3.117361701739e+02 3.047853865077e+02 3.008542959040e+02 3.010442984789e+02 3.153174603354e+02 3.066268920077e+02 3.175639049898e+02 3.072589969416e+02 3.077453420616e+02 3.052375487444e+02 3.042111219741e+02 3.031726747235e+02 3.019129154350e+02 3.008690398048e+02 3.046366368526e+02 3.021006945396e+02 3.019100581899e+02 3.008209363218e+02 3.006406652046e+02 3.010214625834e+02 3.006497192617e+02 3.014933501866e+02 3.078648103558e+02 3.032779528768e+02 3.029029971130e+02 3.018299252411e+02 3.094503992372e+02 3.041406179367e+02 3.081916117909e+02 3.046230981075e+02 3.044768682414e+02 3.019309727347e+02 3.176983350928e+02 3.069983081803e+02 3.022237747176e+02 3.023205041382e+02 3.047669517049e+02 3.027308288896e+02 3.067454939448e+02 3.029187112540e+02 3.047752588000e+02 3.020119103427e+02 3.038895156012e+02 3.018762523168e+02 3.100613608068e+02 3.049835192651e+02 3.056705507208e+02 3.040414011461e+02 3.038420515726e+02 3.020412106332e+02 3.126382420984e+02 3.052460260813e+02 3.044120774100e+02 3.088185878718e+02 3.045395918358e+02 3.097280755709e+02 3.095577970553e+02 3.040313406347e+02 3.006662522409e+02 3.014660563888e+02 3.018711532562e+02 3.043278333518e+02 3.038596874802e+02 3.051764952545e+02 3.113942320926e+02 3.055516896275e+02 3.109032251148e+02 3.044788640882e+02 3.067896759198e+02 3.153406887339e+02 3.018580654680e+02 3.024429325857e+02 3.007100197852e+02 3.007470342517e+02 3.014997470709e+02 3.006339372345e+02 3.016010948869e+02 3.034263627956e+02 3.041570618759e+02 3.098996007360e+02 3.016767031630e+02 3.024688256269e+02 3.051691591902e+02 3.099515389817e+02 3.012735574213e+02 3.020330906146e+02 3.112597975057e+02 3.049795767604e+02 3.013082139222e+02 3.030156800569e+02 3.069122120764e+02 3.175461673982e+02 3.065163484594e+02 3.054770909800e+02 3.147600065755e+02 3.061726066256e+02 3.052978293904e+02 3.094860888041e+02 3.035914000682e+02 3.040533510665e+02 3.053383144316e+02 3.032850182246e+02 3.062799423294e+02 3.146713973676e+02 3.011018540844e+02 3.007986968359e+02 3.033944018555e+02 3.081278371069e+02 3.018608867567e+02 3.007926398235e+02 3.025227149032e+02 3.013926458472e+02 3.014853310150e+02 3.032946433039e+02 3.007231625742e+02 3.010778529219e+02 3.138294119553e+02 3.056099199384e+02 3.043431152556e+02 3.066585764550e+02 3.060225609552e+02 3.148304243188e+02 3.061877013804e+02 3.032210833100e+02 3.016656391347e+02 3.031666045301e+02 3.005768354087e+02 3.013017110629e+02 3.059884927104e+02 3.131066072736e+02 3.066902440037e+02 3.030895654277e+02 3.048614473844e+02 3.115116499675e+02 3.056633866781e+02 3.134441186843e+02 3.131707157416e+02 3.055779192749e+02 3.021164351379e+02 3.018159200392e+02 3.153088804673e+02 3.067823907309e+02 3.053394530088e+02 3.117205208234e+02 3.040947761313e+02 3.017216922058e+02 3.054919638463e+02 3.064863149781e+02 3.016111790247e+02 3.036453445576e+02 3.070729445912e+02 3.047042722782e+02 3.064260822261e+02 3.148328528358e+02 3.106876063104e+02 3.050459533395e+02 3.007211940783e+02 3.012065959097e+02 3.155117642227e+02 3.067559528152e+02 3.049546439974e+02 3.121184929711e+02 3.078613579620e+02 3.034774741024e+02 3.072079023966e+02 3.181462563691e+02 3.180474964508e+02 3.075739842247e+02 3.018333137637e+02 3.029972814811e+02 3.077060797306e+02 3.036227655281e+02 3.076499262950e+02 3.181121464515e+02 3.023099100804e+02 3.017469683492e+02 3.086945404738e+02 3.052557505702e+02 3.027012900260e+02 3.060451662125e+02 3.041000616943e+02 3.017320872529e+02 3.028228088127e+02 3.065581130123e+02 3.046428319906e+02 3.048322115562e+02 3.056146535899e+02 3.064007489171e+02 3.047923097837e+02 3.078815281777e+02 3.059646925537e+02 3.123856822653e+02 3.006979938040e+02 3.014082301951e+02 3.006902085379e+02 3.005876797013e+02 3.013043193448e+02 3.005512448145e+02 3.050733571950e+02 3.104124487604e+02 3.028145164838e+02 3.039061929340e+02 3.125110881505e+02 3.050736774303e+02 3.071597537404e+02 3.181618958296e+02 3.056252105603e+02 3.046693408012e+02 3.127313322541e+02 3.058145321202e+02 3.044258180302e+02 3.080814189655e+02 3.006048434185e+02 3.011207145200e+02 3.075634563236e+02 3.184728634595e+02 3.011356513404e+02 3.005342810748e+02 3.005135433501e+02 3.010954817814e+02 3.044645904834e+02 3.022461281311e+02 3.124760323350e+02 3.055206262416e+02 3.124450197846e+02 3.058654138343e+02 3.057805363506e+02 3.133400048276e+02 3.047833346747e+02 3.108271744852e+02 3.060693757942e+02 3.053462728250e+02 3.044155587299e+02 3.039865975077e+02 3.010135363928e+02 3.005176872184e+02 3.097201956811e+02 3.043431937098e+02 3.062197434317e+02 3.156130707290e+02 3.054054704929e+02 3.125289851249e+02 3.035157873803e+02 3.070878929892e+02 3.079614120602e+02 3.033838961500e+02 3.119920800496e+02 3.050774567839e+02 3.096377368442e+02 3.039660104386e+02 3.058205881537e+02 3.120697708048e+02 3.107407314561e+02 3.055957168413e+02 3.051250161463e+02 3.023817098830e+02 3.050038712057e+02 3.038066606287e+02 3.043485077173e+02 3.100399209927e+02 3.011633100079e+02 3.005069675339e+02 3.060657431298e+02 3.039582291558e+02 3.061779974478e+02 3.149858832184e+02 3.005336088642e+02 3.006988113324e+02 3.071632693535e+02 3.039788472720e+02 3.091630689085e+02 3.037842027078e+02 3.038528590589e+02 3.026747297017e+02 3.032790786034e+02 3.031121047267e+02 3.106156866588e+02 3.043979337299e+02 3.019221751874e+02 3.042733484345e+02 3.034617218076e+02 3.080535115372e+02 3.030673199331e+02 3.058790087602e+02 3.034478017456e+02 3.028254479616e+02 3.090675303273e+02 3.043240179940e+02 3.085321166962e+02 3.049180225888e+02 3.066830736505e+02 3.151429507533e+02 3.004902419798e+02 3.008404473606e+02 3.004892075092e+02 3.011001018577e+02 3.069768039114e+02 3.029064363164e+02 3.067732109329e+02 3.028504409276e+02 3.052795389976e+02 3.077649881749e+02 3.022583115355e+02 3.026158458598e+02 3.147268056085e+02 3.060147711646e+02 3.067101953086e+02 3.027998062026e+02 3.103507050435e+02 3.053823441655e+02 3.047798157454e+02 3.086354852391e+02 3.021612174579e+02 3.050972922620e+02 3.077163675005e+02 3.183074559307e+02 3.034594112069e+02 3.048974661130e+02 3.125068612273e+02 3.060053111918e+02 3.059593750798e+02 3.148717244290e+02 3.054902269248e+02 3.055808358281e+02 3.034863446158e+02 3.062011816232e+02 3.053369026525e+02 3.090506147601e+02 3.013802906612e+02 3.023569059743e+02 3.053451063968e+02 3.130526761015e+02 3.073486827599e+02 3.042557192048e+02 3.076504106028e+02 3.185367381744e+02 3.057776453360e+02 3.025468410942e+02 3.179588909819e+02 3.072698842789e+02 3.035959394497e+02 3.078966763050e+02 3.026756779181e+02 3.041658283596e+02 3.039528909506e+02 3.077208792821e+02 3.072250009921e+02 3.180594494309e+02 3.051671690288e+02 3.021923390159e+02 3.029424169612e+02 3.020488730093e+02 3.065246417491e+02 3.157743806363e+02 3.040638186980e+02 3.086462601979e+02 3.040829119179e+02 3.066352071316e+02 3.184352867623e+02 3.076121680679e+02 3.055210937278e+02 3.103011998302e+02 3.072869928678e+02 3.050077194094e+02 3.083419682331e+02 3.041775349361e+02 3.022258917602e+02 3.047141820759e+02 3.077077900323e+02 3.184046482229e+02 3.138139398975e+02 3.059798499127e+02 3.013025481576e+02 3.026486432386e+02 3.038367561295e+02 3.091893350311e+02 3.064555666077e+02 3.161800388945e+02 3.050296179099e+02 3.074332917980e+02 3.050079727645e+02 3.053537699925e+02 3.062723283587e+02 3.138585693742e+02 3.016169044612e+02 3.017349564277e+02 3.021959452271e+02 3.044795842117e+02 3.149516912088e+02 3.066349024900e+02 3.157004102430e+02 3.062832604955e+02 3.034637728795e+02 3.014667297224e+02 3.029405463071e+02 3.034632557050e+02 3.068704059728e+02 3.160547814999e+02 3.178931933890e+02 3.072227157891e+02 3.158664176087e+02 3.065061964515e+02 3.033659833028e+02 3.055266239950e+02 3.037684833811e+02 3.046422720141e+02 3.031096750042e+02 3.064540673545e+02 3.021916562637e+02 3.010143569413e+02 3.042974949864e+02 3.023853766307e+02 3.027557508085e+02 3.013499967000e+02 3.163735975107e+02 3.069136661244e+02 3.057477062076e+02 3.028641774818e+02 3.053310416273e+02 3.100976627755e+02 3.007314784430e+02 3.004947957772e+02 3.061442905112e+02 3.049488955664e+02 3.011794819896e+02 3.005067082693e+02 3.090611778649e+02 3.047593110824e+02 3.010623256381e+02 3.023849804579e+02 3.039890447711e+02 3.024027062759e+02 3.159707394768e+02 3.066589642205e+02 3.068244792171e+02 3.028761992674e+02 3.055531241152e+02 3.024073717556e+02 3.064618663305e+02 3.159206557203e+02 3.022984124633e+02 3.021805561477e+02 3.050738026950e+02 3.085251716116e+02 3.041385964649e+02 3.072366291720e+02 3.052909266923e+02 3.028872879890e+02 3.053851318349e+02 3.070728240385e+02 3.072713200302e+02 3.168997497820e+02 3.047306313142e+02 3.019864128896e+02 3.007711633197e+02 3.004201091550e+02 3.063169281596e+02 3.136655487732e+02 3.050160516619e+02 3.045412291945e+02 3.090669779393e+02 3.051578709837e+02 3.012853067459e+02 3.011401785409e+02 3.070186602466e+02 3.030843728852e+02 3.033852876420e+02 3.076027438049e+02 3.044633815917e+02 3.092593200843e+02 3.043127636539e+02 3.097461721967e+02 3.025028908120e+02 3.010557104794e+02 3.004221208202e+02 3.008219646305e+02 3.017041225508e+02 3.033935356082e+02 3.077171787477e+02 3.046592916040e+02 3.093889607717e+02 3.040403916914e+02 3.046505152982e+02 3.030773420841e+02 3.138568294977e+02 3.056587510231e+02 3.007704636225e+02 3.004871641266e+02 3.183453201693e+02 3.074580361595e+02 3.012612572843e+02 3.005382884259e+02 3.008941245910e+02 3.005081607372e+02 3.054322239466e+02 3.060871338100e+02 3.012986712864e+02 3.030127790424e+02 3.118832639011e+02 3.054722257279e+02 3.053685185552e+02 3.071072036763e+02 3.005091385503e+02 3.006540347524e+02 3.146268489682e+02 3.063305525123e+02 3.005836986046e+02 3.006626344684e+02 3.185038824713e+02 3.072529601323e+02 3.011637443863e+02 3.004935272432e+02 3.065875504184e+02 3.157189115770e+02 3.111292355037e+02 3.046417771689e+02 3.037412904807e+02 3.085844380958e+02 3.102545357905e+02 3.051854739000e+02 3.012086203667e+02 3.022630232601e+02 3.076919508182e+02 3.032389082153e+02 3.013426651542e+02 3.016906579647e+02 3.063572325311e+02 3.043556082485e+02 3.115546636126e+02 3.047088796725e+02 3.141499463286e+02 3.056875801004e+02 3.035224676136e+02 3.035882744766e+02 3.021812852763e+02 3.040547362236e+02 3.026334519022e+02 3.053120706041e+02 3.061558386040e+02 3.057715027623e+02 3.078391078866e+02 3.032613141318e+02 3.003764283148e+02 3.007692422445e+02 3.026036679666e+02 3.056412689293e+02 3.070646725961e+02 3.164775326880e+02 3.095113123981e+02 3.039355483168e+02 3.043039501606e+02 3.045677249486e+02 3.054948464318e+02 3.109854343999e+02 3.064830266197e+02 3.031093236745e+02 3.047336590280e+02 3.114544222557e+02 3.051518143443e+02 3.065137014827e+02 3.020809288570e+02 3.010497039705e+02 3.168523013332e+02 3.071769536113e+02 3.095119045697e+02 3.039433396295e+02 3.105840362133e+02 3.045428608717e+02 3.120573016096e+02 3.049343424242e+02 3.094862690806e+02 3.053891675302e+02 3.025140479145e+02 3.014879863482e+02 3.003712293329e+02 3.008168716422e+02 3.168897546980e+02 3.072690023133e+02 3.056386141091e+02 3.043271698053e+02 3.034904527120e+02 3.015336036375e+02 3.052681602379e+02 3.124822599878e+02 3.060599389147e+02 3.135933548476e+02 3.134181422569e+02 3.061722404335e+02 3.039807181896e+02 3.018539377966e+02 3.117868944578e+02 3.053565094095e+02 3.022380905174e+02 3.039170589499e+02 3.049856910514e+02 3.109264815693e+02 3.117550501600e+02 3.047948213837e+02 3.119848271034e+02 3.051728479741e+02 3.132732278715e+02 3.053722417926e+02 3.044771014908e+02 3.036917120324e+02 3.046149140864e+02 3.051200235057e+02 3.026484996958e+02 3.027096195322e+02 3.063403014274e+02 3.137416994439e+02 3.144509070934e+02 3.058142579667e+02 3.078469273011e+02 3.187806525892e+02 3.053898098426e+02 3.130662032151e+02 3.120628123200e+02 3.056803482876e+02 3.026155658447e+02 3.050491232724e+02 3.057325963868e+02 3.024011370864e+02 3.012759026297e+02 3.017224101649e+02 3.030986938138e+02 3.056348207673e+02 3.186951765510e+02 3.073948394293e+02 3.044951474165e+02 3.106682590652e+02 3.047434961236e+02 3.095032845244e+02 3.047813096166e+02 3.028988093597e+02 3.029794473143e+02 3.012641875449e+02 3.012042474642e+02 3.017733687782e+02 3.023697942877e+02 3.054886666825e+02 3.028260634880e+02 3.023105874685e+02 3.040971524292e+02 3.058347611721e+02 3.183001728126e+02 3.071853597853e+02 3.053797164899e+02 3.022559488074e+02 3.027340008111e+02 3.047462058083e+02 3.026549926608e+02 3.011309680705e+02 3.093073656846e+02 3.046496786599e+02 3.013779940689e+02 3.012044510690e+02 3.023187780336e+02 3.031631964778e+02 3.041990844892e+02 3.053980732327e+02 3.138438467898e+02 3.061376509671e+02 3.029113504536e+02 3.066730230805e+02 3.046222432937e+02 3.101918561460e+02 3.009912490157e+02 3.004207152137e+02 3.067061559063e+02 3.048854480388e+02 3.032151132492e+02 3.068818345382e+02 3.008601393202e+02 3.015407463818e+02 3.004730726457e+02 3.004957506161e+02 3.063755044206e+02 3.036410927753e+02 3.145673948696e+02 3.061787289388e+02 3.059610993100e+02 3.127694641869e+02 3.004596726216e+02 3.006492861199e+02 3.014077256768e+02 3.009366669679e+02 3.053069977138e+02 3.108123444999e+02 3.105419468862e+02 3.043230773142e+02 3.022367292300e+02 3.009618442585e+02 3.185894088051e+02 3.074169157564e+02 3.022393363292e+02 3.035098179939e+02 3.038180475649e+02 3.036134875020e+02 3.043789493061e+02 3.083913751211e+02 3.100151707758e+02 3.046957986190e+02 3.106114339403e+02 3.043636447615e+02 3.055021509191e+02 3.123958845522e+02 3.075770652231e+02 3.187132271235e+02 3.004326235086e+02 3.008962657189e+02 3.045164215988e+02 3.043941115791e+02 3.087929225127e+02 3.040357581191e+02 3.058032364918e+02 3.060921732280e+02 3.186693962448e+02 3.077431574919e+02 3.084400290431e+02 3.034944493047e+02 3.190488463539e+02 3.079663431413e+02 3.035718406473e+02 3.023346477117e+02 3.086739268066e+02 3.040728365984e+02 3.029478075519e+02 3.048164875750e+02 3.057607351740e+02 3.114626958529e+02 3.073404057571e+02 3.037119957382e+02 3.057499919610e+02 3.036467948839e+02 3.090953173386e+02 3.091530023931e+02 3.088958933242e+02 3.089255391733e+02 3.090918099957e+02 3.090237653341e+02 3.089315571928e+02 3.090505477351e+02 3.089988788045e+02 3.089485294635e+02 3.093403675493e+02 3.088670746977e+02 3.085455915529e+02 3.092250845683e+02 3.086951483446e+02 3.092631792560e+02 3.093146363704e+02 3.093251841760e+02 3.084596715723e+02 3.094240420011e+02 3.085386193762e+02 3.086415888050e+02 3.093478520217e+02 3.085286566132e+02 3.095285834214e+02 3.086662125202e+02 3.085829022961e+02 3.093653761037e+02 3.087519691701e+02 3.095418039455e+02 3.095101436155e+02 3.087217768226e+02 3.095073798892e+02 3.087309332781e+02 3.086432120783e+02 3.096015786164e+02 3.082581046504e+02 3.095322130027e+02 3.095267397389e+02 3.082988058469e+02 3.096097296521e+02 3.083170706094e+02 3.085572493676e+02 3.095416415313e+02 3.084270151187e+02 3.085323213533e+02 3.095848807746e+02 3.095699579197e+02 3.084606893583e+02 3.095616200156e+02 3.091313102115e+02 3.091308991071e+02 
        </DataArray>
        <DataArray type="Float64" Name="STRESS_XX" format="ascii">
          -1.258049369343e+07 -1.265793453473e+07 -6.368009021982e+06 -6.367020960732e+06 -6.067850492505e+04 -4.731338778265e+06 -5.802193515969e+06 -5.758846331148e+06 -6.063481974022e+04 -7.740076068088e+06 -1.265448092451e+07 -1.282680625151e+07 -1.312541475664e+07 -1.360676256704e+07 -1.418096434548e+07 -1.486483201307e+07 -1.561031702568e+07 -1.627436611233e+07 -1.676162053083e+07 -1.698418310415e+07 -1.683507415179e+07 -1.637723319903e+07 -1.572755579683e+07 -1.497250496700e+07 -1.425766251992e+07 -1.364802689734e+07 -1.317846079851e+07 -1.282017788318e+07 -1.269530979483e+07 -1.178113935723e+07 -1.090526814586e+07 -1.007181147318e+07 -9.262719629082e+06 -8.670013510869e+06 -8.264832344364e+06 -7.989476498343e+06 -7.822755784167e+06 -7.711841203754e+06 -7.554237131220e+06 -7.316128699662e+06 -6.990361127154e+06 -6.640647356704e+06 -6.326777458080e+06 -6.116720224063e+06 -6.019129727691e+06 -6.017199492325e+06 -6.065849236506e+06 -6.102990882894e+06 -6.587417989681e+06 -6.300558687266e+06 -5.888166947194e+06 -6.172441381259e+06 -6.650383853129e+06 -7.295056518396e+06 -8.064885291268e+06 -8.901613115647e+06 -9.705806377825e+06 -1.040605378024e+07 -1.086529605417e+07 -1.106792656634e+07 -1.092347396426e+07 -1.050421081945e+07 -9.806778012375e+06 -9.004874199609e+06 -8.187020887335e+06 -7.403121691698e+06 -6.739294904923e+06 -6.242008253820e+06 -5.893639505509e+06 -6.272271055570e+06 -6.559614358551e+06 -6.105726529896e+06 -6.073729008999e+06 -6.022181741568e+06 -6.020237748559e+06 -6.102154876219e+06 -6.291411703623e+06 -6.592807395695e+06 -6.938917523711e+06 -7.278043401052e+06 -7.525665279135e+06 -7.693268992362e+06 -7.803753254648e+06 -7.957118609058e+06 -8.212313131513e+06 -8.631203737564e+06 -9.225461187690e+06 -9.943290152604e+06 -1.076714999597e+07 -1.167943819187e+07 -6.404293368170e+06 -6.590957822177e+06 -6.717142208718e+06 -7.063113845577e+06 -7.450263076287e+06 -7.858496612642e+06 -8.363849602654e+06 -8.744520141014e+06 -9.023435445388e+06 -9.106145458922e+06 -9.033316632957e+06 -8.762686843212e+06 -8.360778439136e+06 -7.876405673508e+06 -7.529601443870e+06 -7.050798335658e+06 -6.771191319151e+06 -6.503436728333e+06 -6.366968932114e+06 -5.024034137199e+06 -5.692719171179e+06 -6.689187684978e+06 -7.763953824558e+06 -8.798341552498e+06 -9.567980717104e+06 -9.853034127150e+06 -9.623146227157e+06 -8.837934753534e+06 -7.544929518420e+06 -5.926381024595e+06 -4.315133049189e+06 -2.676785160849e+06 -1.294712819830e+06 -3.841796581397e+05 -3.720492717094e+05 -1.209260106815e+06 -2.375512731380e+06 -3.935656156424e+06 -5.641883689141e+06 -7.144641116579e+06 -8.389776710886e+06 -9.362673145262e+06 -9.836761590929e+06 -9.894468336184e+06 -9.656431523114e+06 -9.250218393193e+06 -8.714749087006e+06 -8.239635317219e+06 -7.813736445976e+06 -7.917817669723e+06 -8.230478294333e+06 -8.709971138982e+06 -9.206840624202e+06 -9.652204429195e+06 -9.938954256120e+06 -9.885496016639e+06 -9.458757643933e+06 -8.601532625299e+06 -7.328920352963e+06 -5.764602179645e+06 -4.207919085692e+06 -2.617145929020e+06 -1.274124634478e+06 -3.769061648202e+05 -3.721909466807e+05 -1.231983464167e+06 -2.416709696830e+06 -4.033801765842e+06 -5.814609119617e+06 -7.368766810724e+06 -8.625510812878e+06 -9.562860518340e+06 -9.848416037833e+06 -9.572894033347e+06 -8.852818302573e+06 -7.893542773794e+06 -6.748504192484e+06 -5.734872542064e+06 -4.938429077780e+06 -5.607848912171e+06 -8.537717933143e+06 -9.242342772079e+06 -5.763413010524e+06 -6.230640331025e+06 -7.276497876559e+06 -6.924135547500e+06 -7.026496114932e+06 -6.932283776422e+06 -8.664424315574e+06 -1.098083747280e+07 -1.360172341729e+07 -5.423062813197e+06 -6.542464759883e+06 -1.059897928962e+07 -6.978706353467e+06 -5.250793916811e+06 -6.991177872250e+06 -7.448425758222e+06 -5.523379613527e+06 -6.535345498934e+06 -6.541191539515e+06 -1.213279699097e+07 -8.506885834391e+06 -6.104493024109e+06 -6.046405383271e+06 -5.784306489247e+06 -5.942716810247e+06 -1.197150199912e+07 -8.483482543721e+06 -9.881770562046e+06 -7.045780244767e+06 -7.989622519703e+06 -5.981589096832e+06 -6.536272736032e+06 -1.156696513922e+07 -1.246794385832e+07 -7.087091495945e+06 -6.062658582885e+06 -1.047672806970e+07 -6.125505191553e+06 -7.959041517407e+06 -9.914538623597e+06 -5.965788322274e+06 -8.216221441662e+06 -1.418734095954e+07 -5.401142120830e+06 -5.858565824147e+06 -9.739545593857e+06 -7.113963587411e+06 -7.277542792979e+06 -7.565371129638e+06 -5.938166866195e+06 -7.379451884717e+06 -5.474983084573e+06 -5.938585012390e+06 -1.158490320586e+07 -6.420137550906e+06 -7.307456793529e+06 -6.266975458540e+06 -5.538639195169e+06 -7.176405777837e+06 -5.763121409046e+06 -8.984066321331e+06 -6.737013408811e+06 -5.869372955554e+06 -1.306858655392e+07 -7.855157467510e+06 -5.897629629082e+06 -8.606133433000e+06 -7.677333407344e+06 -7.069615531509e+06 -5.203496251904e+06 -5.123857197368e+06 -1.072427067038e+07 -7.882484333552e+06 -7.765665922314e+06 -5.369945482982e+06 -1.523439430694e+07 -8.524907222330e+06 -4.739125181416e+06 -4.757925382049e+06 -1.099540233740e+07 -8.033725120662e+06 -6.769742496718e+06 -8.121319629257e+06 -8.146482243823e+06 -1.290013211492e+07 -5.497828684492e+06 -6.412253558382e+06 -7.069660044492e+06 -7.275287880028e+06 -5.868648983573e+06 -8.985767412429e+06 -1.040096925854e+07 -6.348383338100e+06 -7.052300282615e+06 -8.915156733683e+06 -5.130964670649e+06 -5.226003964966e+06 -1.057983702499e+07 -7.817132596640e+06 -7.253117232000e+06 -1.259220202744e+07 -7.482747503421e+06 -5.619736554415e+06 -6.781731473638e+06 -6.256082436720e+06 -6.636654135852e+06 -7.564705101995e+06 -1.241181629138e+07 -8.142017697950e+06 -5.335024653835e+06 -5.253285262567e+06 -8.968135628807e+06 -5.868512703294e+06 -6.005923852334e+06 -6.455253731358e+06 -1.015597610084e+07 -1.192728568274e+07 -8.795356034287e+06 -5.767394066418e+06 -7.811041412176e+06 -1.165497166140e+07 -1.437170716103e+07 -7.990579494599e+06 -6.560692741185e+06 -6.750766780987e+06 -9.024293407536e+06 -5.962573069852e+06 -1.125065485418e+07 -6.135585676322e+06 -7.770719454938e+06 -6.483904838018e+06 -5.383877349371e+06 -7.778200551836e+06 -6.540861564825e+06 -7.080514408573e+06 -6.842076963425e+06 -6.763953759797e+06 -1.290623907420e+07 -8.788145675141e+06 -6.527433193854e+06 -5.229712615247e+06 -6.041691185463e+06 -7.381759202801e+06 -6.480969127182e+06 -1.081073674894e+07 -8.967247853865e+06 -6.228572713586e+06 -6.126400730693e+06 -5.712896283492e+06 -1.089604089685e+07 -6.330823756694e+06 -7.375386071642e+06 -1.365119146036e+07 -5.776249288625e+06 -5.798546908897e+06 -7.470968133517e+06 -9.481616903347e+06 -7.494817448346e+06 -7.361860503847e+06 -5.737868486943e+06 -7.936032297763e+06 -1.446423053523e+07 -8.583349878795e+06 -1.115793488750e+07 -7.768391753439e+06 -6.128098041264e+06 -1.123521077001e+07 -7.505374931477e+06 -9.745853411183e+06 -4.723688008505e+06 -4.577194434330e+06 -5.980092791715e+06 -9.623122205209e+06 -1.314996048341e+07 -7.053477850588e+06 -6.000599192075e+06 -9.945140948609e+06 -9.994811792679e+06 -5.962523973207e+06 -6.054072577587e+06 -8.539217312238e+06 -4.295869035758e+06 -4.418132701184e+06 -1.051151342104e+07 -7.662920044793e+06 -1.182533451892e+07 -6.339080177926e+06 -6.563199384926e+06 -7.880705866737e+06 -6.212123207797e+06 -8.447999628453e+06 -7.171541529939e+06 -8.161862296842e+06 -8.567143539087e+06 -1.555608780376e+07 -8.199243811002e+06 -6.212594533458e+06 -7.036771573272e+06 -7.729315668379e+06 -1.158189575252e+07 -7.119175216144e+06 -7.557020878501e+06 -7.488870839096e+06 -5.405781401392e+06 -6.592430122423e+06 -7.107340344770e+06 -7.109363966415e+06 -7.450845273333e+06 -6.846502105849e+06 -1.304214401213e+07 -8.614494840824e+06 -6.668131100362e+06 -9.967167861774e+06 -8.205984459846e+06 -5.532477393475e+06 -6.009841360880e+06 -6.150888576736e+06 -8.037894364192e+06 -1.477816262244e+07 -5.974010283279e+06 -6.480728817778e+06 -7.852336543650e+06 -1.116308627329e+07 -7.566378820224e+06 -1.246756228935e+07 -3.700561815564e+06 -3.673029258722e+06 -7.931057044834e+06 -7.180311891362e+06 -1.014933772240e+07 -7.392863235455e+06 -1.406775694546e+07 -8.427939477664e+06 -6.165378322731e+06 -6.178191201385e+06 -9.768702683020e+06 -5.993020689701e+06 -6.142644279263e+06 -6.179438238967e+06 -6.773903815949e+06 -7.381709354960e+06 -1.214505494309e+07 -8.678075322410e+06 -6.202470851747e+06 -9.643843126683e+06 -5.514643308823e+06 -8.142295652235e+06 -6.841063755958e+06 -1.284728421182e+07 -5.306528939044e+06 -6.897350776634e+06 -8.858116261173e+06 -5.666774486045e+06 -6.931883396608e+06 -5.896495455183e+06 -5.491479896743e+06 -5.963487557744e+06 -1.419716505853e+07 -7.677411732370e+06 -5.575535132914e+06 -7.684770771118e+06 -6.328581103031e+06 -1.194412866239e+07 -7.361421643650e+06 -7.370122834929e+06 -6.796312963771e+06 -6.498047115149e+06 -5.273028163826e+06 -6.296388255503e+06 -5.786803027332e+06 -6.887300001086e+06 -7.363442392950e+06 -5.285377554691e+06 -7.072349419347e+06 -5.412478775957e+06 -5.786637983606e+06 -9.145383068806e+06 -1.383665635940e+07 -8.558796148956e+06 -3.599173272864e+06 -3.493840431022e+06 -1.087123666045e+07 -6.147584242075e+06 -1.268902652690e+07 -6.705909168287e+06 -7.817663708514e+06 -6.809653979237e+06 -6.637705597109e+06 -6.428628940299e+06 -9.014247513156e+06 -7.555849559482e+06 -8.777042591747e+06 -6.439746772131e+06 -9.809675507518e+06 -7.418695976352e+06 -5.444355266538e+06 -5.288978260713e+06 -7.479333573733e+06 -9.523990211360e+06 -1.254690381734e+07 -8.535293817022e+06 -5.597736055220e+06 -5.449542676684e+06 -9.988888862394e+06 -6.312846759792e+06 -7.595367653678e+06 -5.969106159028e+06 -1.046781753254e+07 -7.610427224731e+06 -1.558068922808e+07 -8.431163558285e+06 -5.797297201141e+06 -5.783063214670e+06 -6.208754069386e+06 -5.400148520073e+06 -1.048537978187e+07 -7.158348910524e+06 -1.157471651718e+07 -8.367732575192e+06 -7.397560546504e+06 -5.898479668448e+06 -8.277898768789e+06 -5.697693354766e+06 -7.134818939181e+06 -6.573904296786e+06 -6.285960122138e+06 -5.397891976700e+06 -1.253150007827e+07 -7.408110969419e+06 -5.491840770016e+06 -7.815443291442e+06 -5.592539638198e+06 -8.626430606183e+06 -1.175329192026e+07 -7.514685387587e+06 -7.885920554505e+06 -9.172067642700e+06 -7.569565183931e+06 -1.036092441980e+07 -6.667043998743e+06 -7.052554226727e+06 -8.769646298178e+06 -5.879634980899e+06 -1.339120416270e+07 -8.423970324263e+06 -6.043794849824e+06 -1.041969429239e+07 -5.514635454802e+06 -5.451694942439e+06 -2.594441612630e+06 -2.573955172019e+06 -9.565468967597e+06 -6.743763680219e+06 -6.446376866207e+06 -8.114747282265e+06 -7.622272694338e+06 -1.200896691611e+07 -5.412099469272e+06 -5.388847529780e+06 -5.921968375287e+06 -8.163757318818e+06 -5.408582451755e+06 -5.384254451765e+06 -9.908220705165e+06 -6.022251816281e+06 -7.551719502748e+06 -1.001218328199e+07 -8.678481691014e+06 -1.594466496246e+07 -7.679281889656e+06 -7.286360987180e+06 -1.212252068234e+07 -6.779824846699e+06 -6.251988866881e+06 -8.099729880520e+06 -6.905019521501e+06 -6.991488192665e+06 -6.543703036165e+06 -5.793914307040e+06 -6.310919626385e+06 -1.117313460171e+07 -4.125424332444e+06 -4.277112187421e+06 -8.347081748833e+06 -1.238708194461e+07 -9.880161479238e+06 -7.257942503515e+06 -6.112297730764e+06 -5.741568137782e+06 -6.971519815278e+06 -8.991978120915e+06 -4.774359136108e+06 -4.613989634097e+06 -1.395674206611e+07 -8.143083453652e+06 -6.393690191144e+06 -7.297736245045e+06 -7.816460889258e+06 -1.381321354975e+07 -6.804617767506e+06 -5.243259650567e+06 -5.655220226125e+06 -6.404421833938e+06 -7.800223439168e+06 -9.431009084008e+06 -5.919107394409e+06 -9.616659853016e+06 -8.338610606818e+06 -5.748840198287e+06 -7.023328899908e+06 -1.165072457631e+07 -6.766250079456e+06 -1.177306248194e+07 -1.149713997530e+07 -6.643889381629e+06 -5.267284239041e+06 -5.336323227586e+06 -1.038378398360e+07 -6.041453920480e+06 -5.813831485607e+06 -9.410079687928e+06 -1.145140048011e+07 -8.334954030950e+06 -7.280495405316e+06 -7.679322539301e+06 -7.181555012424e+06 -9.530407894306e+06 -7.528274787064e+06 -6.585290379202e+06 -6.160717001662e+06 -1.082365003166e+07 -8.707454125397e+06 -5.662454000815e+06 -5.824937158157e+06 -5.713258185885e+06 -1.073964094270e+07 -6.099163114437e+06 -8.273900790998e+06 -1.356804599695e+07 -9.592428972460e+06 -6.324811221870e+06 -8.105737613638e+06 -1.518174781219e+07 -1.199815798610e+07 -6.263668022731e+06 -5.448823621767e+06 -5.661271197439e+06 -8.101251789403e+06 -5.493653993775e+06 -6.133555923303e+06 -1.177677348241e+07 -5.323280746840e+06 -5.401957029674e+06 -7.958717379039e+06 -6.489177535985e+06 -6.411577581664e+06 -9.198805814382e+06 -1.123583493309e+07 -8.189759497886e+06 -7.399101943771e+06 -1.071863541476e+07 -7.117805970183e+06 -6.979865288450e+06 -7.445730364487e+06 -7.547099615031e+06 -6.331131358928e+06 -7.625875105204e+06 -6.006901330723e+06 -9.085481498239e+06 -7.534164844519e+06 -8.007376581283e+06 -2.660073064712e+06 -2.729812624405e+06 -9.387729279984e+06 -6.563628380544e+06 -5.690745486705e+06 -8.433979300046e+06 -6.138066918925e+06 -6.335966019114e+06 -1.413771297939e+07 -8.599520777694e+06 -8.493133359162e+06 -1.581662697656e+07 -7.453134416997e+06 -7.131900564473e+06 -9.554686752897e+06 -5.882394992135e+06 -5.768397599127e+06 -7.470384904956e+06 -6.983039874228e+06 -7.019414278967e+06 -6.812178165358e+06 -1.313907106524e+07 -8.916465491500e+06 -8.160421033429e+06 -8.236563538973e+06 -8.983695933504e+06 -6.781237306951e+06 -5.418962476944e+06 -1.005262701323e+07 -6.000086662488e+06 -9.211990588463e+06 -5.914388781324e+06 -6.205655600390e+06 -1.068074544679e+07 -6.062149761998e+06 -9.900092031383e+06 -7.602243440457e+06 -7.337049340311e+06 -7.173440078238e+06 -7.067705820044e+06 -7.941534592158e+06 -7.769884775451e+06 -9.460491102152e+06 -5.953598309589e+06 -8.591521838746e+06 -1.519650040604e+07 -6.331018674174e+06 -1.077487575032e+07 -5.280319866952e+06 -7.334317143512e+06 -1.137864630556e+07 -7.584279452904e+06 -1.149059837615e+07 -6.827844259495e+06 -1.333576963793e+07 -8.745525744628e+06 -5.954970340078e+06 -9.005600121687e+06 -8.487660533527e+06 -6.124869677587e+06 -8.085256853787e+06 -5.925899913264e+06 -7.062789473234e+06 -6.710204328772e+06 -6.533056687863e+06 -1.050141319144e+07 -9.463913950225e+06 -7.538832728248e+06 -7.039249668777e+06 -6.260972022182e+06 -7.177024593423e+06 -1.285460092017e+07 -3.323071168352e+06 -3.212316782447e+06 -7.103789428649e+06 -5.643020182546e+06 -1.313630547295e+07 -8.690360323390e+06 -6.171500070940e+06 -5.959577349479e+06 -6.653229476792e+06 -6.640794953339e+06 -1.280802633935e+07 -8.052741608819e+06 -6.698688348295e+06 -9.004591042300e+06 -7.132587177937e+06 -1.079312150255e+07 -5.238491575528e+06 -6.718159913322e+06 -6.444997795276e+06 -6.393746354528e+06 -8.199200136428e+06 -5.482555398965e+06 -7.781920881620e+06 -6.190307808920e+06 -6.048311026471e+06 -1.043776624593e+07 -6.318088507561e+06 -6.171427699000e+06 -7.915106471675e+06 -9.399924042170e+06 -1.253541071399e+07 -8.740943995007e+06 -1.191581770404e+07 -8.273005051746e+06 -6.823216201735e+06 -7.837192226601e+06 -5.964608546875e+06 -5.931151946969e+06 -1.341734701534e+07 -7.574173740072e+06 -1.243302518658e+07 -8.711398252705e+06 -8.343199930997e+06 -6.025191569463e+06 -5.968233519729e+06 -7.726792244342e+06 -8.153316682006e+06 -1.135207718337e+07 -6.129093508244e+06 -1.187672923239e+07 -6.354660655562e+06 -6.767883221785e+06 -9.143320375625e+06 -6.012839107973e+06 -8.482096291224e+06 -1.479526710112e+07 -7.470791435026e+06 -7.502836769821e+06 -5.495139934095e+06 -6.719947278747e+06 -6.449434806880e+06 -8.047326931556e+06 -5.585598914755e+06 -5.742990057248e+06 -7.918479747642e+06 -1.340150955085e+07 -7.267820554979e+06 -5.914503110679e+06 -6.566768321284e+06 -1.273907387488e+07 -9.689127141738e+06 -6.805529556498e+06 -1.383091218273e+07 -7.300672013644e+06 -5.820956971881e+06 -8.795290143488e+06 -5.732425106594e+06 -6.121258837416e+06 -5.389168764509e+06 -7.363512909916e+06 -7.775002439420e+06 -1.464777255962e+07 -1.130634294313e+07 -8.105793784663e+06 -5.671527730475e+06 -5.630756581722e+06 -6.945091207029e+06 -1.267410968978e+07 -5.510172310058e+06 -8.299036993220e+06 -6.088413150484e+06 -7.114490781841e+06 -1.270141879408e+07 -6.571358976374e+06 -6.197093619168e+06 -8.366544392564e+06 -7.684760136259e+06 -6.777085521001e+06 -7.645462179463e+06 -5.426478914034e+06 -5.838968114541e+06 -7.758135205542e+06 -6.239487289484e+06 -1.209212480193e+07 -1.076843402974e+07 -6.206385179780e+06 -6.408314683316e+06 -7.401403580346e+06 -8.070541441746e+06 -1.237232073646e+07 -8.331446529873e+06 -1.499581722663e+07 -6.750862452738e+06 -7.704081599323e+06 -7.352367476433e+06 -7.471322307760e+06 -5.976361266181e+06 -9.880434980242e+06 -4.964991766067e+06 -4.924040788948e+06 -5.575091109866e+06 -7.128264473253e+06 -1.032102363216e+07 -6.035062652325e+06 -1.478413416910e+07 -8.298885423300e+06 -1.088309879933e+07 -7.974074922772e+06 -6.502977619426e+06 -6.551708234095e+06 -6.226883010585e+06 -1.125174467228e+07 -1.402557274906e+07 -7.423535648237e+06 -1.312675407035e+07 -7.200353833924e+06 -5.775971489609e+06 -6.594491649669e+06 -6.847047126352e+06 -7.066580377107e+06 -5.383463063193e+06 -7.527430847308e+06 -8.640367196392e+06 -7.281828081927e+06 -6.129651837345e+06 -5.313198820615e+06 -7.419537128658e+06 -6.365253970756e+06 -1.173042089751e+07 -6.389591336980e+06 -7.019948674359e+06 -5.274751317488e+06 -6.056457746446e+06 -8.258347286946e+06 -4.286208039028e+06 -4.438635694741e+06 -7.565520663942e+06 -7.132413651089e+06 -9.397468428956e+06 -7.079161451218e+06 -7.839333906928e+06 -5.762479701413e+06 -7.412743028249e+06 -9.328240914319e+06 -5.960468708440e+06 -5.473934198051e+06 -1.228391895567e+07 -6.704885495954e+06 -1.183384004145e+07 -8.188480341815e+06 -1.035362936883e+07 -7.318997007121e+06 -7.578786074307e+06 -1.375552415517e+07 -5.705493472409e+06 -5.725414051367e+06 -6.363699267691e+06 -7.845624015448e+06 -5.811431839160e+06 -7.179259468437e+06 -6.416119891033e+06 -5.294946757519e+06 -7.095170964335e+06 -7.763341440475e+06 -6.096163403217e+06 -1.117026284362e+07 -1.170280639277e+07 -8.468899349415e+06 -7.224293946608e+06 -7.304585170455e+06 -6.003963945712e+06 -9.639277069532e+06 -7.375799910925e+06 -7.233726260010e+06 -7.971816162982e+06 -6.245660132146e+06 -3.952279689352e+06 -4.021271821855e+06 -9.832240309624e+06 -6.646387585586e+06 -6.234013398255e+06 -9.387847552268e+06 -5.502356992233e+06 -8.172259157199e+06 -6.116171846047e+06 -9.754377106868e+06 -1.047399757375e+07 -7.593713060982e+06 -7.936686946476e+06 -8.013158824597e+06 -5.817846914912e+06 -6.900574936865e+06 -7.539126040082e+06 -6.244382485849e+06 -1.072708900712e+07 -6.802086479087e+06 -6.433751420221e+06 -5.992233724883e+06 -1.350562488850e+07 -7.810899523603e+06 -5.029754028571e+06 -5.190189307838e+06 -1.353390676241e+07 -7.084729332889e+06 -9.429134503181e+06 -6.919747945388e+06 -6.423823122401e+06 -6.530303310840e+06 -7.366948732004e+06 -7.605746460900e+06 -7.628193916412e+06 -1.018509697509e+07 -9.267801280373e+06 -5.799324854291e+06 -7.087982755229e+06 -7.758393169465e+06 -3.106417795630e+06 -3.007761621298e+06 -1.083600382299e+07 -6.178458913072e+06 -2.489262195298e+06 -2.439464493307e+06 -1.628959369559e+07 -8.735878361395e+06 -9.271040440654e+06 -6.545936484565e+06 -6.605116674105e+06 -1.202302776803e+07 -1.231559419668e+07 -7.575669818016e+06 -6.594628619991e+06 -1.020167193229e+07 -8.321429828121e+06 -5.838789154246e+06 -6.070983203566e+06 -6.487311553435e+06 -1.189609434566e+07 -8.047751915550e+06 -4.741433279154e+06 -4.625556717903e+06 -7.313482777086e+06 -6.572265615971e+06 -1.387894638031e+07 -8.658470583325e+06 -1.464275534126e+07 -8.548465844112e+06 -6.871867659771e+06 -6.880865028201e+06 -5.338043971783e+06 -6.223853495552e+06 -5.343423803977e+06 -7.017080326427e+06 -7.604404423220e+06 -7.466525350666e+06 -1.265191524777e+07 -8.627114658182e+06 -8.527271018777e+06 -8.802043029786e+06 -5.925031023781e+06 -8.287421602090e+06 -6.170312125847e+06 -1.121912714940e+07 -1.296205543941e+07 -8.449733393575e+06 -7.202475515465e+06 -7.272568853173e+06 -5.938384843478e+06 -8.576588613693e+06 -7.604972246567e+06 -5.414667497516e+06 -7.918701538980e+06 -1.288022817211e+07 -7.134567660855e+06 -7.644833120841e+06 -7.280338291033e+06 -6.653239531036e+06 -1.144644921101e+07 -6.210194471472e+06 -1.282141593449e+07 -8.353058650147e+06 -1.087014164608e+07 -6.681580281552e+06 -1.351136293004e+07 -8.238371869364e+06 -8.144483013710e+06 -6.357745232314e+06 -5.695716210815e+06 -5.520156374317e+06 -8.416683751092e+06 -9.415124319684e+06 -1.113327050299e+07 -6.094589635817e+06 -7.329225094681e+06 -6.889854458468e+06 -9.695478055482e+06 -7.311041041738e+06 -6.860658038331e+06 -1.166813796813e+07 -5.977952840694e+06 -1.004742650075e+07 -9.632394028406e+06 -5.962682965247e+06 -8.120552371336e+06 -6.268716428293e+06 -9.451024572196e+06 -5.822582572561e+06 -5.367550593246e+06 -5.986232845412e+06 -5.756635923676e+06 -9.212957918185e+06 -1.378831091172e+07 -8.526893951773e+06 -1.069479821325e+07 -6.352959058024e+06 -1.420778018557e+07 -8.442346139121e+06 -7.022649665626e+06 -6.838939607039e+06 -7.242487758154e+06 -7.395539786848e+06 -6.231673313503e+06 -6.228918452354e+06 -6.006328533506e+06 -9.648214095447e+06 -1.453417408317e+07 -8.396728460509e+06 -6.196121198978e+06 -1.218280733563e+07 -7.560049600791e+06 -1.290044516394e+07 -9.133685949884e+06 -5.851860436490e+06 -5.253438575977e+06 -6.581389623905e+06 -1.208450886798e+07 -8.614461483474e+06 -4.862310270349e+06 -4.738686423025e+06 -5.336053310458e+06 -6.508541626899e+06 -1.549381649442e+07 -8.203459449982e+06 -7.279629803174e+06 -1.177011180524e+07 -5.614802840598e+06 -8.064452606287e+06 -6.267367248720e+06 -5.606290353452e+06 -1.059286713654e+07 -7.780788735123e+06 -5.083640129059e+06 -4.970604148796e+06 -7.449846544412e+06 -1.051473867672e+07 -5.944625469728e+06 -5.963967225747e+06 -6.572727794715e+06 -7.168386882929e+06 -1.614547706338e+07 -8.685809824058e+06 -1.196660891201e+07 -8.582625282184e+06 -5.403870055337e+06 -6.196674400627e+06 -1.032904188385e+07 -7.634017695218e+06 -7.967343851425e+06 -5.579404043424e+06 -4.140524981752e+06 -4.218412056587e+06 -5.898827871441e+06 -5.952622155376e+06 -6.885061276525e+06 -7.264773965378e+06 -1.018185606787e+07 -6.006731840336e+06 -6.908402342517e+06 -1.008307725029e+07 -5.777946453576e+06 -9.190028051046e+06 -9.118805181671e+06 -6.437179315216e+06 -7.585688146598e+06 -6.890611685474e+06 -5.600191949154e+06 -8.113822819924e+06 -6.280414685851e+06 -6.346781497449e+06 -1.883202445513e+06 -1.867923677401e+06 -6.810513765937e+06 -5.608278059833e+06 -1.149667829796e+07 -6.476951505556e+06 -5.924705747292e+06 -9.352347911278e+06 -3.844323184000e+06 -3.711894176814e+06 -4.861417855518e+06 -5.001650786869e+06 -5.803474282746e+06 -8.553326173041e+06 -1.351069381972e+07 -8.633820498117e+06 -9.966482770909e+06 -7.516515052298e+06 -1.479271015307e+07 -7.797096077491e+06 -5.582678570601e+06 -5.842147591651e+06 -6.972099976274e+06 -6.937432174802e+06 -5.583701729893e+06 -7.577624220435e+06 -8.621651233341e+06 -5.599869159462e+06 -1.330623290894e+07 -8.453482110876e+06 -5.977442115018e+06 -9.980590576019e+06 -7.162086097899e+06 -1.379987464965e+07 -8.400976913200e+06 -8.820234433463e+06 -7.265648787137e+06 -7.233166042908e+06 -8.739073956590e+06 -5.686317081560e+06 -7.475047539512e+06 -7.594673632192e+06 -1.249776257283e+07 -6.400996119374e+06 -1.296384957083e+07 -8.745792471879e+06 -1.218145779596e+07 -6.108893971868e+06 -5.899093213979e+06 -5.663146407900e+06 -8.308465751739e+06 -5.515117260986e+06 -5.651254458471e+06 -6.288424872860e+06 -6.075926975911e+06 -8.714992752550e+06 -7.294523541080e+06 -5.315796487565e+06 -6.815721194504e+06 -6.043583721229e+06 -6.576947123053e+06 -6.548574208601e+06 -9.821455569710e+06 -9.645077211465e+06 -7.238177069343e+06 -8.176638784668e+06 -9.252421887246e+06 -7.242007016370e+06 -8.235550633200e+06 -8.973661285261e+06 -6.733026015089e+06 -6.873378847806e+06 -9.575193890364e+06 -9.866740760983e+06 -7.645578608659e+06 -8.918785145935e+06 -7.732025600631e+06 -9.672368813878e+06 -9.342986621397e+06 -7.738510357782e+06 -8.579895101654e+06 -7.652952742323e+06 -1.022021202378e+07 -9.122696155715e+06 -6.787272041952e+06 -6.978484216166e+06 -8.410295454700e+06 -8.788619528410e+06 -6.629832358144e+06 -6.234907289062e+06 -6.276866621011e+06 -6.632869775295e+06 -6.452934366646e+06 -6.747394179888e+06 -6.735348279188e+06 -6.349964031036e+06 -9.434316698910e+06 -1.017932271683e+07 -1.041544108200e+07 -9.263995806668e+06 -7.170792954004e+06 -8.931677085258e+06 -7.231767191682e+06 -9.689776208694e+06 -8.056982480167e+06 -7.247991334048e+06 -7.137981404687e+06 -8.402488782249e+06 -8.011599822623e+06 -8.365974766735e+06 -6.472977239694e+06 -6.481908767351e+06 
        </DataArray>
        <DataArray type="Float64" Name="STRESS_YY" format="ascii">
          -1.979668560964e+07 -1.982137664102e+07 -1.137062695590e+07 -1.131600762598e+07 -3.054284359894e+07 6.933639009153e+04 -1.000176598298e+07 -9.973084640492e+06 -3.053314192458e+07 4.712311634319e+04 -1.970255858225e+07 -1.938763822165e+07 -1.884082838420e+07 -1.796385509976e+07 -1.697278457384e+07 -1.594029063792e+07 -1.473848386502e+07 -1.367476499316e+07 -1.290857326546e+07 -1.261302795546e+07 -1.282251144055e+07 -1.351886641815e+07 -1.456154806943e+07 -1.575762537065e+07 -1.693197368239e+07 -1.793639156513e+07 -1.875818322450e+07 -1.929826981391e+07 -1.967878619408e+07 -1.955265786848e+07 -1.939448647239e+07 -1.930255064533e+07 -1.925266530648e+07 -1.919743978063e+07 -1.909959741759e+07 -1.891512111559e+07 -1.864127195852e+07 -1.828459072243e+07 -1.789228182885e+07 -1.746621482126e+07 -1.701749523750e+07 -1.650870187431e+07 -1.593156193674e+07 -1.526730419408e+07 -1.451568560681e+07 -1.373277314153e+07 -1.292818547951e+07 -1.211260082284e+07 -1.082480873014e+07 -1.034887001610e+07 -1.001051001800e+07 -1.000730268269e+07 -1.000997301337e+07 -1.000996617156e+07 -1.001259412973e+07 -1.001385117224e+07 -1.001555127729e+07 -1.001705343268e+07 -1.001933364235e+07 -1.001515251236e+07 -1.001937298785e+07 -1.001173102750e+07 -1.001883982794e+07 -1.001280830947e+07 -1.000646077923e+07 -1.001217293304e+07 -1.000606432954e+07 -1.000652687187e+07 -9.992012959657e+06 -1.030150285335e+07 -1.077642053375e+07 -1.202752753659e+07 -1.280091170175e+07 -1.360183445067e+07 -1.447427379279e+07 -1.520897048530e+07 -1.583941191208e+07 -1.643000582440e+07 -1.695000033613e+07 -1.740722047922e+07 -1.783389874024e+07 -1.823369362796e+07 -1.858966180432e+07 -1.888039179023e+07 -1.908170967000e+07 -1.919493279990e+07 -1.924780468890e+07 -1.929418571616e+07 -1.937295008872e+07 -1.953715200764e+07 -1.130616783757e+07 -1.127189861031e+07 -1.120565141562e+07 -1.109973936907e+07 -1.092233835425e+07 -1.070064568143e+07 -1.044102270800e+07 -1.017779873710e+07 -9.988993694044e+06 -9.920118584404e+06 -9.984004233909e+06 -1.017536151193e+07 -1.042928929817e+07 -1.069391509781e+07 -1.091554457203e+07 -1.109352827190e+07 -1.121256733709e+07 -1.128197350749e+07 -1.133188285336e+07 -3.982714672605e+04 -1.901969018844e+05 -6.250285886729e+05 -1.400286147457e+06 -2.579183165492e+06 -4.300444364875e+06 -6.692557789086e+06 -9.588606444765e+06 -1.293784336951e+07 -1.656026062390e+07 -2.018259696333e+07 -2.344773965840e+07 -2.644954486446e+07 -2.858614338182e+07 -3.007051223154e+07 -2.998446705348e+07 -2.863841034652e+07 -2.641726945464e+07 -2.358155847123e+07 -2.014953461409e+07 -1.657115333489e+07 -1.320921367732e+07 -9.858950989086e+06 -7.039107521804e+06 -4.837700119972e+06 -3.112903786299e+06 -1.806894347414e+06 -9.184730398902e+05 -4.121978893845e+05 -4.634538128332e+04 -9.271737876684e+04 -3.058148895351e+05 -8.093084891329e+05 -1.627301843301e+06 -2.795574541648e+06 -4.429927730690e+06 -6.687777311998e+06 -9.407716744922e+06 -1.261149715263e+07 -1.611989255736e+07 -1.970531710866e+07 -2.300048292680e+07 -2.606745786592e+07 -2.832161943585e+07 -2.992898510389e+07 -3.010426463533e+07 -2.889253096748e+07 -2.678078984340e+07 -2.403188447652e+07 -2.063010492638e+07 -1.700852092445e+07 -1.355720744541e+07 -1.005622781627e+07 -7.063013020853e+06 -4.725739956789e+06 -2.915816866405e+06 -1.584084560893e+06 -7.413090290069e+05 -2.990037110882e+05 -1.336519773143e+04 -1.481429282814e+07 -1.796683362105e+07 -1.716406826924e+07 -1.392229681581e+07 -1.823339247435e+07 -1.945660910938e+07 -1.971681436429e+07 -1.876135163335e+07 -1.031965809437e+07 -7.264404898681e+06 -1.236463519378e+07 -9.127248493765e+06 -1.752138259803e+07 -1.916836911283e+07 -1.127265737929e+07 -9.644167859078e+06 -1.557211375423e+07 -1.713472059119e+07 -1.508337962316e+07 -1.385684049621e+07 -2.149851500440e+07 -2.167455822158e+07 -6.346527419974e+06 -5.130315571769e+06 -2.183540164140e+07 -2.116196547995e+07 -2.054328978141e+07 -2.139110286522e+07 -5.819574712409e+06 -4.689737574309e+06 -9.157656444822e+06 -8.201492969621e+06 -1.903614086569e+07 -1.601962342862e+07 -1.212536989284e+07 -1.616846011431e+07 -1.442937631003e+07 -1.108000006819e+07 -1.324760232029e+07 -1.858163566241e+07 -1.617091243968e+07 -1.907075848247e+07 -1.868441923319e+07 -1.376021626851e+07 -9.222805781649e+06 -1.175973215912e+07 -1.850803206803e+07 -1.937065755555e+07 -8.397802572445e+06 -7.613452291100e+06 -1.792750109149e+07 -1.856547258545e+07 -1.311055590548e+07 -1.386201184442e+07 -1.804188764897e+07 -1.880308253118e+07 -1.724636467656e+07 -1.234567252412e+07 -1.928813985541e+07 -1.739288792435e+07 -1.667454942600e+07 -1.888147540588e+07 -1.336180143371e+07 -1.574944488865e+07 -1.560071388622e+07 -1.496214336736e+07 -1.167363344972e+07 -9.297861858362e+06 -1.229012911779e+07 -1.379379145824e+07 -1.862658717875e+07 -1.739507964729e+07 -2.422303297593e+07 -2.444820080428e+07 -4.477770250096e+06 -3.765595997865e+06 -1.729224452387e+07 -1.506758226677e+07 -1.185025399780e+07 -9.285130121507e+06 -2.555965366480e+07 -2.552717829533e+07 -2.835769526957e+06 -2.096417450749e+06 -1.047962399879e+07 -1.090249984324e+07 -8.170169049281e+06 -1.012327362300e+07 -1.797053358558e+07 -1.947797418731e+07 -1.886280601639e+07 -1.945798283407e+07 -1.470775944109e+07 -1.883050065727e+07 -1.467709509482e+07 -1.202150989257e+07 -8.087692880332e+06 -8.546894375157e+06 -2.291507202015e+07 -2.252851722763e+07 -4.089548094955e+06 -3.439400264965e+06 -1.068711252462e+07 -1.374019886706e+07 -1.884594317854e+07 -1.634325990347e+07 -1.999598659146e+07 -1.870591418418e+07 -1.726777558215e+07 -1.903697697307e+07 -9.185135546945e+06 -7.512850415833e+06 -2.142771062707e+07 -2.173174444965e+07 -1.472578525334e+07 -1.274237756636e+07 -1.339724632528e+07 -1.215460737129e+07 -1.762226134665e+07 -1.770061175441e+07 -1.856145073599e+07 -1.481794933690e+07 -7.645549675844e+06 -9.127793708535e+06 -1.299611750295e+07 -9.963238822257e+06 -1.980138972881e+07 -2.058663502698e+07 -1.909031342510e+07 -1.472385806294e+07 -1.915098980100e+07 -1.254326001909e+07 -1.900639020346e+07 -1.672954277562e+07 -1.523376417054e+07 -1.758811671183e+07 -1.426328807674e+07 -1.460580412827e+07 -2.072547789965e+07 -2.028796927771e+07 -7.100006420856e+06 -5.637034476480e+06 -1.789752612767e+07 -1.651947105630e+07 -1.699499102178e+07 -1.919934588725e+07 -1.185879343817e+07 -1.471349822016e+07 -1.233373900169e+07 -1.106501458744e+07 -2.049300057930e+07 -1.937222064949e+07 -1.613368604789e+07 -1.247255075066e+07 -1.092927910134e+07 -1.500806342494e+07 -1.927643124464e+07 -1.957672591931e+07 -5.509493358865e+06 -5.898643014217e+06 -1.858665965010e+07 -1.827147495296e+07 -1.586124188769e+07 -1.882423913590e+07 -1.067963653805e+07 -8.441246744385e+06 -7.965936454089e+06 -6.799142395738e+06 -1.254755372910e+07 -1.919766294978e+07 -4.721014736851e+06 -5.161837512990e+06 -2.424813322780e+07 -2.441975670940e+07 -1.406716829223e+07 -1.911927192840e+07 -1.599843798158e+07 -1.134120973620e+07 -1.317837851764e+07 -1.651139529721e+07 -1.776002114365e+07 -1.355495708401e+07 -1.535201385121e+07 -1.912741031412e+07 -2.561147464159e+07 -2.549467509635e+07 -2.252200202893e+06 -1.638054495624e+06 -1.837587298940e+07 -1.219742876163e+07 -1.659455109583e+07 -1.893960420585e+07 -1.103445022199e+07 -1.197037578624e+07 -1.040513441842e+07 -1.069367606531e+07 -9.464032868287e+06 -1.210246997984e+07 -1.909281337428e+07 -1.588777158259e+07 -1.723612835852e+07 -1.860708646137e+07 -1.259444995564e+07 -1.028569274557e+07 -1.805194080583e+07 -1.790710573723e+07 -1.568768269336e+07 -1.670698304072e+07 -1.983046964700e+07 -1.983805538388e+07 -1.908229188561e+07 -1.779133902755e+07 -8.281899403724e+06 -6.637704621501e+06 -1.017610399898e+07 -1.168512290685e+07 -1.796729979943e+07 -1.510174409899e+07 -1.785102113956e+07 -1.817009941274e+07 -1.013508901212e+07 -1.341575852444e+07 -1.897423589815e+07 -2.023507419147e+07 -6.280642878048e+06 -7.372684807956e+06 -9.641017352869e+06 -1.199405697006e+07 -2.716318744475e+07 -2.717189731567e+07 -1.174241148854e+07 -1.148157827109e+07 -2.019545070185e+06 -1.497474418014e+06 -1.075970014135e+07 -8.516811821697e+06 -2.250517321883e+07 -2.223203668435e+07 -1.915719649314e+07 -1.391619965345e+07 -2.135773733357e+07 -2.194584499753e+07 -1.788852285412e+07 -1.920066993923e+07 -4.995839840005e+06 -3.886456016727e+06 -1.188402326507e+07 -1.390466686516e+07 -1.397017304832e+07 -1.592442847148e+07 -1.157420463556e+07 -1.675488190936e+07 -1.656743051380e+07 -1.845215715806e+07 -1.666650066489e+07 -1.394673624211e+07 -1.945178795012e+07 -1.764926018555e+07 -1.908078013761e+07 -2.016540073071e+07 -1.430972706675e+07 -1.057679156722e+07 -1.353515769043e+07 -1.484145484202e+07 -1.209187969291e+07 -1.858044428878e+07 -1.879518910269e+07 -1.881811829368e+07 -1.589105846294e+07 -1.560802786285e+07 -1.731794737784e+07 -1.863827743856e+07 -1.755976658455e+07 -1.939179849304e+07 -1.712688390253e+07 -1.526320317915e+07 -1.866508606101e+07 -1.657923223469e+07 -1.439967057534e+07 -1.828878941063e+07 -9.916184836360e+06 -7.881477395652e+06 -2.678574468953e+07 -2.677437497373e+07 -1.833129697986e+07 -1.292517506467e+07 -1.736305460495e+07 -1.167180713684e+07 -1.877021722605e+07 -1.687754448557e+07 -2.071163973715e+07 -1.985490445981e+07 -7.371993232141e+06 -7.086171213857e+06 -1.100796007052e+07 -1.013416609670e+07 -2.966541108941e+06 -2.557972350788e+06 -2.137481195652e+07 -2.135633484826e+07 -2.914608943816e+06 -3.220959655430e+06 -7.489675982843e+06 -6.050651450223e+06 -2.104183604828e+07 -2.031588761472e+07 -1.393674247985e+07 -1.175207171126e+07 -1.909188983064e+07 -1.657694360709e+07 -6.672748243462e+06 -5.867816533091e+06 -1.280989171592e+07 -9.844022439532e+06 -2.339886529381e+07 -2.348460076433e+07 -1.942395114343e+07 -1.809525125003e+07 -9.961664844008e+06 -8.657578345106e+06 -4.559956397655e+06 -3.617304132483e+06 -1.383623068072e+07 -1.305826411243e+07 -1.862737582278e+07 -1.537221561858e+07 -1.956834660186e+07 -1.827922328357e+07 -1.762186519771e+07 -1.666688047009e+07 -1.286645145946e+07 -1.019964364507e+07 -1.561831204564e+07 -1.827481804963e+07 -1.437805870377e+07 -1.719570475847e+07 -1.090384572849e+07 -9.023551710343e+06 -6.237966658749e+06 -6.461282536874e+06 -5.865145569157e+06 -6.632330606055e+06 -1.877385919171e+07 -1.981333292909e+07 -1.889206324126e+07 -1.496462764742e+07 -9.763104684313e+06 -7.809799796409e+06 -1.326777860056e+07 -1.925648515288e+07 -2.281240321536e+07 -2.325473303843e+07 -2.852691461603e+07 -2.850543432535e+07 -1.107197984607e+06 -7.008379415817e+05 -1.081632894203e+07 -1.141306497095e+07 -8.954100711255e+06 -1.089542723395e+07 -2.177182348924e+07 -2.231990189011e+07 -1.573624374893e+07 -1.898703753205e+07 -2.093486822555e+07 -2.133244858176e+07 -1.609802548640e+07 -1.301995403146e+07 -4.576240841259e+06 -5.108132655280e+06 -9.535959729266e+06 -1.215472377442e+07 -1.832109069572e+07 -1.751672290713e+07 -1.566130632200e+07 -1.169366012467e+07 -1.605581258387e+07 -1.907393178513e+07 -1.993351720094e+07 -2.032985277224e+07 -1.982965730904e+07 -1.834953626948e+07 -1.259934387495e+07 -1.718287137591e+07 -2.497895603237e+07 -2.497246918646e+07 -6.591867720599e+06 -8.079346774248e+06 -2.116077983239e+06 -1.668980997064e+06 -1.803705624327e+07 -1.748198050677e+07 -8.222100247907e+06 -8.757134901430e+06 -2.339188345964e+07 -2.339287110300e+07 -1.175172798789e+07 -9.234043412286e+06 -1.757396478259e+07 -1.930860962795e+07 -1.000739195939e+07 -1.297370360403e+07 -1.814687726444e+07 -1.642684155426e+07 -1.615277630793e+07 -1.687143147699e+07 -4.087772494212e+06 -4.344800581378e+06 -1.404330044724e+07 -1.863788860237e+07 -1.436982637734e+07 -1.283182538271e+07 -1.067745090976e+07 -1.323448553147e+07 -1.158333757719e+07 -1.498898125098e+07 -1.518295728379e+07 -1.179414354942e+07 -2.424595326472e+07 -2.402276440459e+07 -1.926764819900e+07 -1.330140041563e+07 -1.398426721107e+07 -1.765886858325e+07 -3.504694509212e+06 -2.635942036848e+06 -1.751242768587e+07 -1.832968192336e+07 -7.058150320508e+06 -7.664523417285e+06 -1.908124114263e+07 -1.728828675827e+07 -1.294765165141e+07 -1.797037322263e+07 -1.803999096935e+07 -1.470504208318e+07 -1.998482551325e+07 -2.003929411407e+07 -1.877180131763e+07 -1.302327116345e+07 -8.484548031918e+06 -1.065645087838e+07 -1.296980208316e+07 -1.126401127623e+07 -1.026712793723e+07 -1.383519677790e+07 -1.895940620952e+07 -1.199299973237e+07 -1.982555155465e+07 -2.057819749727e+07 -1.607363445629e+07 -1.409103161699e+07 -1.206065585163e+07 -1.943509565249e+07 -2.340679641615e+07 -2.299030513650e+07 -1.898296555371e+07 -1.642112033445e+07 -1.044075305493e+07 -1.164130254313e+07 -4.004730946284e+06 -3.175225269085e+06 -7.879729797560e+06 -9.096201951792e+06 -1.822232198790e+07 -1.767864218358e+07 -1.900549707365e+07 -1.887733116613e+07 -1.685813973995e+07 -1.909995719491e+07 -1.467382043289e+07 -1.918142919950e+07 -1.170969687964e+07 -1.186221302018e+07 -2.791069728895e+07 -2.798462508159e+07 -9.388011512964e+05 -5.739057437458e+05 -1.515098329950e+07 -1.849594800748e+07 -2.014281994213e+07 -2.103387875058e+07 -1.018166218419e+07 -8.068325488394e+06 -9.895228732105e+06 -1.286833294956e+07 -1.897131223875e+07 -1.820889388633e+07 -1.837822575011e+07 -1.405439578576e+07 -1.655039240803e+07 -1.901039783301e+07 -1.575712139180e+07 -1.580244462062e+07 -1.143390142430e+07 -1.741194294531e+07 -8.178080193542e+06 -8.029854607958e+06 -7.783556505168e+06 -7.924034569164e+06 -1.625556565206e+07 -1.519268160027e+07 -1.707504878730e+07 -1.332280479029e+07 -1.890956231368e+07 -1.448578987880e+07 -1.280606813448e+07 -1.674465896097e+07 -1.280776167889e+07 -1.566741372395e+07 -1.837800052941e+07 -1.780940758848e+07 -1.978132523256e+07 -1.941279828010e+07 -1.278157835955e+07 -1.274130427187e+07 -1.532882523565e+07 -1.285746626238e+07 -9.077050724751e+06 -1.153783675348e+07 -1.240183405794e+07 -1.579058442569e+07 -1.546817064770e+07 -1.741029283549e+07 -9.692951952798e+06 -8.175419455046e+06 -1.401508735489e+07 -1.119899146080e+07 -8.295946592016e+06 -6.602636508818e+06 -1.474377139556e+07 -1.905839358661e+07 -1.915199250347e+07 -1.544722359350e+07 -1.320933665800e+07 -1.215054098662e+07 -1.983282695792e+07 -1.885508007940e+07 -1.138423873808e+07 -1.369567306242e+07 -2.947989174639e+06 -2.664544680350e+06 -1.957025761875e+07 -1.799179973960e+07 -1.104172654201e+07 -1.465378692481e+07 -2.657952459235e+07 -2.646186801440e+07 -1.907183537325e+07 -1.695329088710e+07 -8.112463598797e+06 -6.473882616634e+06 -2.111376402406e+07 -2.019177940232e+07 -2.134173501902e+07 -2.118545891176e+07 -1.037498837350e+07 -8.385586388742e+06 -9.160228902089e+06 -9.910086641095e+06 -9.263396211350e+06 -1.085464775237e+07 -1.644655204721e+07 -1.805485990846e+07 -2.154253752266e+07 -2.101206105150e+07 -1.742398628993e+07 -1.481464315387e+07 -1.907830405929e+07 -1.648285970314e+07 -1.327640672470e+07 -1.900098925415e+07 -1.888404553145e+07 -1.877848353663e+07 -4.135301719978e+06 -4.371227037961e+06 -6.234153827190e+06 -4.939013284671e+06 -7.123030965566e+06 -5.869727510412e+06 -1.685369146047e+07 -1.875614988183e+07 -2.262972729901e+07 -2.294102553544e+07 -1.350891289885e+07 -1.037281199653e+07 -6.047872160739e+06 -4.791031562688e+06 -1.907766381676e+07 -1.558666119258e+07 -1.637593595546e+07 -1.905596567917e+07 -4.709269644967e+06 -5.670121882049e+06 -1.197141064213e+07 -1.948748343083e+07 -1.900656593019e+07 -2.014363848451e+07 -1.920972014997e+07 -1.461005715161e+07 -9.019250433378e+06 -1.147866005326e+07 -1.815259276385e+07 -1.822354744135e+07 -1.735516031549e+07 -1.914765330173e+07 -1.624925983363e+07 -1.900331527708e+07 -1.914680119755e+07 -1.966071373149e+07 -9.395921386162e+06 -1.187070492882e+07 -1.921629211446e+07 -1.705543051426e+07 -1.160444226394e+07 -1.814245609907e+07 -1.026410578109e+07 -9.173440646480e+06 -1.581955801752e+07 -1.104936542960e+07 -1.283185296972e+07 -1.472660477814e+07 -1.946922541134e+07 -2.056978599820e+07 -1.605434574468e+07 -1.831872530714e+07 -1.058683256128e+07 -1.459766947232e+07 -5.884925963646e+06 -4.916147455014e+06 -2.201611426083e+07 -2.134260290873e+07 -1.148265540397e+07 -1.573548623137e+07 -1.432149057351e+07 -1.667934319536e+07 -1.755373873436e+07 -1.939620338398e+07 -1.813048365480e+07 -1.162243299219e+07 -1.565316926582e+07 -1.913143527573e+07 -1.887281673343e+07 -1.713974756595e+07 -1.816850700621e+07 -1.570205420184e+07 -1.263069088842e+07 -1.361073900396e+07 -1.186405890074e+07 -1.912899121399e+07 -1.707673871111e+07 -1.284122290912e+07 -1.283671506433e+07 -1.330691254858e+07 -7.726889444142e+06 -9.440413843674e+06 -9.584532764638e+06 -1.236381470776e+07 -1.707157256648e+07 -1.888229522649e+07 -1.834365708058e+07 -1.862867244493e+07 -1.380602316458e+07 -1.885965811984e+07 -2.505752079987e+07 -2.514299441481e+07 -1.418488691373e+07 -1.519134798605e+07 -1.904396903058e+07 -1.338371200298e+07 -1.222757404603e+07 -9.504744388325e+06 -3.404421646621e+06 -2.687946400413e+06 -2.094185479119e+07 -2.140133382054e+07 -1.263118931766e+07 -1.834758120453e+07 -1.544551688800e+07 -1.092250135823e+07 -1.503518205385e+07 -1.110069012788e+07 -1.817414548036e+07 -1.971789223730e+07 -1.924074220385e+07 -1.996041511930e+07 -1.447361069392e+07 -1.608769986023e+07 -8.916649915828e+06 -8.595757040295e+06 -1.885699094216e+07 -1.769938872250e+07 -1.329627236823e+07 -1.279932966070e+07 -1.785122811780e+07 -1.228855140119e+07 -1.681029860573e+07 -1.533162068877e+07 -1.571489559807e+07 -1.907334318658e+07 -2.372780640455e+07 -2.388655786546e+07 -1.874040443410e+07 -1.780157306660e+07 -1.904464510867e+06 -1.596396246416e+06 -1.888580278276e+07 -1.601991513901e+07 -6.077015942895e+06 -6.458308279319e+06 -2.008472051980e+07 -1.899972419119e+07 -1.657570990303e+07 -1.184361599229e+07 -7.393967349262e+06 -6.124201588588e+06 -8.559354095255e+06 -7.540524398959e+06 -1.056084482818e+07 -1.406300205018e+07 -2.364231882192e+07 -2.353997634691e+07 -1.651735879281e+07 -1.904230166236e+07 -1.706796186913e+07 -1.919201274973e+07 -1.874149201712e+07 -1.727770874425e+07 -1.718994835636e+07 -1.850714787959e+07 -1.257174990622e+07 -1.937466791161e+07 -4.168185127299e+06 -3.211711751867e+06 -1.567025694648e+07 -1.576586503983e+07 -1.405207261239e+07 -1.924231003975e+07 -1.908351060019e+07 -1.870096276291e+07 -1.906735961648e+07 -1.623762928782e+07 -2.656889585840e+07 -2.652086031508e+07 -1.153180858109e+07 -1.011197853945e+07 -1.145668219153e+07 -1.311961085451e+07 -1.503847946301e+07 -1.778501991373e+07 -1.240152832153e+07 -1.480534062180e+07 -1.985469053928e+06 -1.373205226104e+06 -1.293485322890e+07 -1.290969842382e+07 -1.448336903543e+07 -1.520111339280e+07 -1.914809397321e+07 -1.693232518743e+07 -1.257694938805e+07 -1.055386413469e+07 -2.036562393287e+07 -1.917507907498e+07 -1.254067132353e+07 -9.797820626628e+06 -2.189083778232e+07 -2.202695812540e+07 -1.660420621045e+07 -1.121843992837e+07 -1.604174748387e+06 -1.266807359830e+06 -1.792084293426e+07 -1.799235745030e+07 -1.778955192837e+07 -1.829692287978e+07 -4.015767170456e+06 -4.574047735100e+06 -1.808634250808e+07 -1.423757665164e+07 -1.719229863862e+07 -1.851331984084e+07 -2.698499196352e+07 -2.685814163804e+07 -1.774256103649e+07 -1.291720518474e+07 -2.842920008664e+07 -2.836999485356e+07 -1.244895084672e+07 -9.744278481325e+06 -1.042710099311e+06 -7.124253658750e+05 -1.200981604506e+07 -1.673932447559e+07 -1.167823299043e+07 -9.456338982007e+06 -1.079327845824e+07 -1.264646127202e+07 -1.888061639451e+07 -1.547256944091e+07 -1.624714758589e+07 -1.669185948405e+07 -8.418863071807e+06 -6.989881504251e+06 -2.478920608804e+07 -2.497686837806e+07 -1.930007324241e+07 -1.777874944169e+07 -9.575941576440e+06 -7.603135875311e+06 -1.103061850370e+07 -8.700016888324e+06 -2.058443652655e+07 -2.063737190492e+07 -1.702917910607e+07 -1.806979957531e+07 -1.500818145612e+07 -1.631262912606e+07 -1.803140679265e+07 -1.774572511345e+07 -7.259808906365e+06 -5.826382812622e+06 -9.772521824876e+06 -9.804115778368e+06 -1.209342392587e+07 -1.328577009462e+07 -1.261817941774e+07 -1.882875771067e+07 -8.860488161356e+06 -7.136910851219e+06 -1.917234487539e+07 -1.938994729483e+07 -1.524031842685e+07 -1.901472718127e+07 -1.590572147141e+07 -1.430329295599e+07 -8.902912983113e+06 -1.108355769840e+07 -1.754371033454e+07 -1.860154581184e+07 -1.393976675541e+07 -1.359842300919e+07 -1.880095236992e+07 -1.244247044672e+07 -9.027821646545e+06 -7.300427312500e+06 -1.359737949250e+07 -1.118227992608e+07 -1.072026235865e+07 -8.538654114060e+06 -1.904796436383e+07 -1.604787586249e+07 -1.997132615834e+07 -1.938675373352e+07 -5.057821855528e+06 -5.239481040197e+06 -1.937362788140e+07 -1.260458984862e+07 -1.929273531721e+07 -1.824877237286e+07 -6.967017160955e+06 -6.383460706168e+06 -1.122934462410e+07 -1.418844730508e+07 -1.359290186622e+07 -1.820275242975e+07 -1.898577218924e+07 -1.405520448599e+07 -1.189560332275e+07 -1.116719791997e+07 -1.760703067134e+07 -1.393343997792e+07 -1.827296250161e+07 -1.932176923238e+07 -1.395529779513e+07 -1.719774077385e+07 -9.960625891630e+06 -7.919065979428e+06 -1.538418134082e+07 -1.225756337714e+07 -1.089132987651e+07 -8.606022599736e+06 -2.010741368617e+07 -1.945125438399e+07 -1.862334665243e+07 -1.902620457051e+07 -2.239795183890e+07 -2.244788929291e+07 -1.404399019700e+07 -1.924913854109e+07 -1.148793491068e+07 -9.025929583230e+06 -1.176283367958e+07 -1.933441998172e+07 -1.003710631348e+07 -1.275151101265e+07 -1.868739498445e+07 -1.452017919226e+07 -1.622202671137e+07 -1.753486687012e+07 -5.239278120953e+06 -4.127247913233e+06 -2.404295972010e+07 -2.427508774733e+07 -1.731234966981e+07 -1.889778108593e+07 -1.383825755291e+07 -1.026399951967e+07 -9.893382676871e+06 -1.211293058008e+07 -1.551726850429e+07 -1.849487483547e+07 -1.993652085825e+07 -1.860689119756e+07 -3.080697816516e+06 -2.444074633323e+06 -2.275829863310e+07 -2.303348023388e+07 -7.092807509134e+06 -8.089073243989e+06 -2.265709066666e+07 -2.222655889103e+07 -1.817835191139e+07 -1.951297071963e+07 -1.248269158086e+07 -9.736751449054e+06 -4.894639752079e+06 -3.834862475763e+06 -1.814556421617e+07 -1.946353557971e+07 -3.050258961523e+06 -2.488463296830e+06 -1.847082292366e+07 -1.559320606587e+07 -2.623546422880e+07 -2.616557928248e+07 -2.127836539276e+07 -2.196587230187e+07 -1.847991310936e+07 -1.943980011909e+07 -1.818548788945e+07 -1.348011932405e+07 -9.226202643173e+06 -1.050536961854e+07 -1.360517008091e+07 -1.641797809307e+07 -9.542033229064e+05 -6.594979956132e+05 -1.888026040660e+07 -1.747553340387e+07 -1.345881818979e+07 -1.511272470226e+07 -1.754588089303e+07 -1.773477747626e+07 -2.917329782033e+07 -2.914608180755e+07 -1.924460957252e+07 -1.740249537594e+07 -1.649863057513e+07 -1.225284517910e+07 -1.433813600363e+07 -1.891431061137e+07 -2.527639528146e+07 -2.511302019779e+07 -2.294845792877e+07 -2.281107723552e+07 -1.515290675557e+07 -1.876753291566e+07 -9.087272674594e+06 -7.242425917350e+06 -3.352150002694e+06 -2.893588605337e+06 -1.484437185740e+07 -1.060028466470e+07 -1.993842716694e+07 -2.085606095550e+07 -2.039124503692e+07 -2.021078793188e+07 -1.614394040031e+07 -1.871158023968e+07 -1.750351689081e+07 -1.453574075260e+07 -9.492974268772e+06 -7.602608107887e+06 -1.339314993101e+07 -1.715119157707e+07 -1.112457410207e+07 -1.654900244335e+07 -9.261042714324e+06 -9.334114522109e+06 -1.932241033705e+07 -1.921927759022e+07 -1.584934977763e+07 -1.356175156567e+07 -1.777146283088e+07 -1.801963681961e+07 -1.868818716347e+07 -1.167360839023e+07 -7.443449614624e+06 -5.926407409022e+06 -1.963736953577e+07 -1.170542751684e+07 -2.101913907428e+07 -2.010043884832e+07 -1.667751190742e+07 -1.431991481652e+07 -1.867633708197e+07 -1.999875540535e+07 -1.514490240208e+07 -1.918617817031e+07 -1.796649950450e+07 -1.587486064139e+07 -1.971548312884e+07 -1.817049588834e+07 -1.056785883367e+07 -1.052231413258e+07 -1.015883696463e+07 -1.019332316153e+07 -1.048794343881e+07 -1.040264708632e+07 -1.025876444767e+07 -1.051410740528e+07 -1.040363896954e+07 -1.030961454790e+07 -1.035763478051e+07 -1.071588561798e+07 -1.012064879861e+07 -1.017822924884e+07 -1.065643257583e+07 -1.024778432854e+07 -1.031237069796e+07 -1.018387681186e+07 -1.016947384759e+07 -1.026194052014e+07 -1.043214281220e+07 -1.068068144588e+07 -1.014930614747e+07 -1.026134155476e+07 -1.025221917667e+07 -1.084441119673e+07 -1.048226374907e+07 -1.023074900176e+07 -1.087412692744e+07 -1.024263260312e+07 -1.026918464045e+07 -1.091410864812e+07 -1.026565283680e+07 -1.086351064001e+07 -1.094759072047e+07 -1.020664878377e+07 -1.006196240821e+07 -1.013390137483e+07 -1.012629971438e+07 -1.015229971600e+07 -1.018678576457e+07 -1.029448437548e+07 -1.086459337834e+07 -1.014414352437e+07 -1.063520042620e+07 -1.087483108308e+07 -1.019777349571e+07 -1.017098906077e+07 -1.064743769293e+07 -1.017896721776e+07 -1.054302956561e+07 -1.055750939174e+07 
        </DataArray>
        <DataArray type="Float64" Name="STRESS_ZZ" format="ascii">
          -1.484206114928e+07 -1.491673397029e+07 -7.480544381642e+06 -7.479259290000e+06 -9.783227542246e+06 -1.258865027609e+06 -7.534422370507e+06 -7.526343240783e+06 -9.778378129418e+06 -2.078825385687e+06 -1.484774000522e+07 -1.480493070078e+07 -1.472972922622e+07 -1.460351348260e+07 -1.448938255699e+07 -1.441628259098e+07 -1.429019537880e+07 -1.417479242315e+07 -1.409200439116e+07 -1.408985524146e+07 -1.410231603577e+07 -1.416075707194e+07 -1.427587836709e+07 -1.439238112277e+07 -1.451937184352e+07 -1.462226762385e+07 -1.472548702131e+07 -1.475375629359e+07 -1.486598016543e+07 -1.405215741833e+07 -1.322346987868e+07 -1.243727047231e+07 -1.164327803737e+07 -1.099707162738e+07 -1.045394596708e+07 -9.942318923902e+06 -9.484693255168e+06 -9.088907843733e+06 -8.736491245384e+06 -8.424990693511e+06 -8.144134360982e+06 -7.898730356839e+06 -7.691782970671e+06 -7.532103894432e+06 -7.412374924571e+06 -7.335592357060e+06 -7.288426264583e+06 -7.259307097126e+06 -7.689826617129e+06 -7.626604188134e+06 -7.561983101355e+06 -7.647725553216e+06 -7.787846110717e+06 -7.985049396813e+06 -8.212582614283e+06 -8.467949742895e+06 -8.704945640517e+06 -8.919802143250e+06 -9.053334668909e+06 -9.117561897328e+06 -9.072709561528e+06 -8.947505867460e+06 -8.739812500814e+06 -8.495432825449e+06 -8.251225255770e+06 -8.015629040774e+06 -7.817536898259e+06 -7.667227390927e+06 -7.565160254229e+06 -7.620659344310e+06 -7.683853976818e+06 -7.256177878912e+06 -7.282993382907e+06 -7.325893363644e+06 -7.409452012513e+06 -7.518307483146e+06 -7.666360930457e+06 -7.867512479967e+06 -8.105211033337e+06 -8.385431596295e+06 -8.689778204902e+06 -9.039215465483e+06 -9.422472733973e+06 -9.870160798382e+06 -1.037494501983e+07 -1.095122104926e+07 -1.160446611070e+07 -1.231470337672e+07 -1.309286325456e+07 -1.396019676196e+07 -7.485114371819e+06 -7.551225538731e+06 -7.495501502133e+06 -7.566419575949e+06 -7.604797344467e+06 -7.605622324629e+06 -7.706981457177e+06 -7.696507008795e+06 -7.709891917840e+06 -7.683085362216e+06 -7.710484858046e+06 -7.703102924220e+06 -7.676365881531e+06 -7.609433378675e+06 -7.658648889968e+06 -7.539222611316e+06 -7.535528976635e+06 -7.470955122790e+06 -7.451159326462e+06 -1.376806676513e+06 -1.595063995977e+06 -1.984592208525e+06 -2.489088205217e+06 -3.091462022740e+06 -3.780861672677e+06 -4.549066662388e+06 -5.346681166317e+06 -6.169981555654e+06 -6.983229366280e+06 -7.742486650971e+06 -8.422863447709e+06 -9.022973611845e+06 -9.416440187250e+06 -9.702104610168e+06 -9.647374821412e+06 -9.357986095912e+06 -8.896533372040e+06 -8.315071333899e+06 -7.603595132185e+06 -6.841309851918e+06 -6.116893207554e+06 -5.350483711372e+06 -4.651434577399e+06 -4.036776705192e+06 -3.492349029807e+06 -3.017328014462e+06 -2.620886739821e+06 -2.360355356477e+06 -2.115537345294e+06 -2.187006421768e+06 -2.322405332999e+06 -2.594873359621e+06 -2.959364781281e+06 -3.397282828374e+06 -3.929607431146e+06 -4.567346982320e+06 -5.247126637485e+06 -5.992570273662e+06 -6.752747242640e+06 -7.498038372794e+06 -8.193800335692e+06 -8.825703454393e+06 -9.280051333691e+06 -9.628830085323e+06 -9.709404558997e+06 -9.490382723178e+06 -9.082996190576e+06 -8.547811554553e+06 -7.855212018061e+06 -7.072850689279e+06 -6.302375819696e+06 -5.466752305093e+06 -4.653557757547e+06 -3.904021262424e+06 -3.201936895458e+06 -2.573297196149e+06 -2.030151559081e+06 -1.638785546276e+06 -1.333542425382e+06 -7.018108569503e+06 -1.030434514489e+07 -1.050012455372e+07 -6.857015879860e+06 -7.806486092694e+06 -8.809173300761e+06 -9.009953273139e+06 -8.286155655027e+06 -5.923205591068e+06 -5.641707652852e+06 -9.248840021306e+06 -9.411211071973e+06 -7.236343851571e+06 -8.769717926848e+06 -8.376019420432e+06 -5.558963905393e+06 -6.579884468342e+06 -8.385960825523e+06 -7.756673033660e+06 -6.054685693639e+06 -8.573589637515e+06 -8.686817328238e+06 -6.983008866321e+06 -4.517581793168e+06 -8.684447120966e+06 -8.223401769020e+06 -7.944969209377e+06 -8.570510285420e+06 -6.634116752473e+06 -4.325319258503e+06 -6.766094449390e+06 -4.834049998095e+06 -1.019758762092e+07 -7.501125123362e+06 -6.899057690867e+06 -1.187679048842e+07 -1.157521293773e+07 -6.698174466360e+06 -7.209776334881e+06 -1.238011509344e+07 -7.595325031539e+06 -1.013326591026e+07 -1.194552341118e+07 -7.229988517444e+06 -6.462416377509e+06 -1.134350765598e+07 -7.149794310113e+06 -7.955133969428e+06 -6.288198365025e+06 -4.592681838968e+06 -8.396476351959e+06 -8.897680978832e+06 -5.744106567263e+06 -6.928743852921e+06 -6.991442723595e+06 -7.748170370289e+06 -1.252727997363e+07 -7.077662536515e+06 -9.346180801666e+06 -7.750231315248e+06 -7.253873065364e+06 -9.347696514637e+06 -6.458220757613e+06 -9.505543942097e+06 -7.041863710915e+06 -6.175664925230e+06 -1.044081311740e+07 -6.180423649653e+06 -5.873934342888e+06 -8.132842775927e+06 -9.200695131819e+06 -8.210638494858e+06 -8.744020058906e+06 -8.887858811737e+06 -5.240387144880e+06 -3.629583148514e+06 -9.239563234141e+06 -6.730035447257e+06 -1.220793252622e+07 -6.756947446449e+06 -9.040200344006e+06 -9.019505540352e+06 -4.757251656234e+06 -3.165707768860e+06 -5.081339760582e+06 -5.997674582330e+06 -5.743042992937e+06 -9.448918351730e+06 -7.339905186798e+06 -8.695047342807e+06 -8.330165862551e+06 -8.773891330091e+06 -7.299575293397e+06 -1.116162841633e+07 -1.007579266783e+07 -6.401974756229e+06 -4.515032606663e+06 -5.639036340089e+06 -8.464302680119e+06 -8.180698466422e+06 -4.985692911672e+06 -3.476958370565e+06 -6.570240914522e+06 -1.127066984546e+07 -9.653360939125e+06 -7.287321220342e+06 -8.886693964799e+06 -7.870953394117e+06 -7.939765071091e+06 -9.396725199916e+06 -8.594853503087e+06 -5.380696727814e+06 -7.841987718810e+06 -8.105965403295e+06 -8.936188396948e+06 -6.183690923419e+06 -7.032846553384e+06 -7.160909128435e+06 -1.154908678899e+07 -1.308173003769e+07 -1.084720954499e+07 -7.215403386583e+06 -5.196936759971e+06 -8.029009433372e+06 -1.222348410006e+07 -6.793525055058e+06 -8.187566039991e+06 -8.750327695825e+06 -1.132754573711e+07 -7.385431785492e+06 -1.337634722034e+07 -7.257253809162e+06 -9.738488294255e+06 -7.823896780263e+06 -6.824175187241e+06 -9.402325640066e+06 -6.037041618083e+06 -6.586919472934e+06 -8.700407511234e+06 -8.399527025317e+06 -7.867334967039e+06 -4.916619207131e+06 -8.240780306981e+06 -6.756442958318e+06 -7.602667872217e+06 -9.524207086550e+06 -6.477462910764e+06 -1.042565957592e+07 -7.662778099017e+06 -5.539635355394e+06 -8.573161261285e+06 -7.675939295573e+06 -1.130771631454e+07 -6.806540275077e+06 -7.026683730962e+06 -1.286564465280e+07 -7.302094808936e+06 -7.617473273610e+06 -3.839882560640e+06 -4.902976496634e+06 -8.744269115502e+06 -8.500527772153e+06 -7.325101766930e+06 -1.010570298263e+07 -1.092014648777e+07 -6.262766913638e+06 -7.103159676845e+06 -4.761957679116e+06 -7.260030906058e+06 -1.339042437458e+07 -3.651877295013e+06 -4.823050909042e+06 -8.551380410984e+06 -8.685124724805e+06 -7.330274526795e+06 -1.192202455759e+07 -1.305859170456e+07 -7.093303055447e+06 -6.774805078634e+06 -1.073656153197e+07 -1.148879580707e+07 -7.052230945963e+06 -7.498272552355e+06 -1.083006491485e+07 -8.958688204346e+06 -8.871937089169e+06 -4.255154300815e+06 -2.852534864691e+06 -1.339773135640e+07 -7.214676280439e+06 -7.859409265123e+06 -9.822155421261e+06 -5.359671090017e+06 -7.019082215171e+06 -5.088342100072e+06 -5.760471726346e+06 -6.906926360892e+06 -1.261471559729e+07 -1.039546815616e+07 -7.625018643736e+06 -8.180475530407e+06 -9.289421541702e+06 -9.833035722655e+06 -6.100240194034e+06 -8.747421827455e+06 -8.632664230897e+06 -6.418836192071e+06 -7.650011528365e+06 -8.558867859064e+06 -8.564293098767e+06 -9.118271786221e+06 -8.087694090183e+06 -8.564656795411e+06 -5.278478278996e+06 -5.546971315465e+06 -8.112932513477e+06 -9.991894492912e+06 -6.994525749188e+06 -6.939768834823e+06 -7.317631219391e+06 -6.981529310268e+06 -1.280114401921e+07 -7.762681464005e+06 -8.766195943983e+06 -4.593507713549e+06 -6.826396238725e+06 -6.129908201020e+06 -1.016839615479e+07 -9.244929341579e+06 -9.254287097531e+06 -5.949030668295e+06 -5.381033129718e+06 -3.957217547607e+06 -2.684319246476e+06 -1.066815931692e+07 -6.183345333628e+06 -8.756034627193e+06 -8.582525343999e+06 -1.207794401949e+07 -7.325357465586e+06 -8.319739953733e+06 -8.715303551946e+06 -8.054377011468e+06 -9.100871996764e+06 -6.371590482653e+06 -4.121473145351e+06 -6.078832329499e+06 -9.041117620220e+06 -6.384425832964e+06 -8.867605049306e+06 -7.146652870258e+06 -1.326926606950e+07 -7.008285553406e+06 -8.911934737496e+06 -9.894589465841e+06 -6.685049618393e+06 -9.130520155097e+06 -7.572322430384e+06 -7.464947974300e+06 -8.383161490537e+06 -1.287959441352e+07 -7.017730387109e+06 -6.020534737238e+06 -7.860239912441e+06 -7.231980731351e+06 -1.361624418456e+07 -8.581323907838e+06 -8.598912511664e+06 -6.821004904284e+06 -6.399368414858e+06 -6.971689630860e+06 -8.289087455331e+06 -7.498899589968e+06 -9.109132222795e+06 -8.770636684425e+06 -6.625558964340e+06 -9.175151545976e+06 -7.130314715974e+06 -7.138848089702e+06 -1.103060165967e+07 -1.001821807389e+07 -5.908139700995e+06 -9.099478940364e+06 -9.112286559660e+06 -1.257230793283e+07 -7.180734336985e+06 -1.350168352184e+07 -7.196128917094e+06 -9.571974460079e+06 -8.016784277602e+06 -8.752845404158e+06 -8.135151217125e+06 -5.047583060100e+06 -4.245833036536e+06 -6.809592003021e+06 -5.150199370257e+06 -4.045234070994e+06 -2.949831986965e+06 -7.844876471715e+06 -7.899876464116e+06 -3.002032234519e+06 -3.889725210616e+06 -7.818366625728e+06 -4.941859361996e+06 -8.243718176669e+06 -7.662062848123e+06 -9.336936528101e+06 -6.146463952311e+06 -9.767760025985e+06 -7.532160748062e+06 -6.014675168820e+06 -4.239170037995e+06 -1.307176554539e+07 -7.078340620983e+06 -8.764277623397e+06 -8.817025544764e+06 -8.463876616803e+06 -7.251100359635e+06 -7.611925656167e+06 -5.178837863455e+06 -5.818344481536e+06 -3.851249842339e+06 -6.958763941449e+06 -5.732186610995e+06 -1.037501524714e+07 -7.235448389498e+06 -9.001416167937e+06 -7.982217584945e+06 -7.714977372134e+06 -6.658722676423e+06 -1.071379984010e+07 -6.356928712913e+06 -7.066172492755e+06 -9.763558681248e+06 -6.803804605709e+06 -9.977123862088e+06 -9.034742597141e+06 -5.697805057101e+06 -4.037283883981e+06 -4.696118720263e+06 -4.205871930710e+06 -5.921772235552e+06 -8.087394797993e+06 -8.880901853075e+06 -1.097813255855e+07 -7.339020220209e+06 -9.609578085745e+06 -5.761696117443e+06 -7.296780981457e+06 -1.272271490889e+07 -8.425171021508e+06 -8.717610460205e+06 -9.460723362422e+06 -9.453530170465e+06 -3.344057063345e+06 -2.204727781878e+06 -5.183389765135e+06 -6.356014599475e+06 -5.750203895855e+06 -9.216060584777e+06 -8.051722482390e+06 -8.448420767222e+06 -7.441926221293e+06 -1.038494095214e+07 -7.731554670218e+06 -8.071158759035e+06 -1.047160026803e+07 -6.673818325870e+06 -3.678903488659e+06 -5.011649775847e+06 -7.033568167504e+06 -1.295770953795e+07 -9.039324410085e+06 -8.395938561794e+06 -1.202837888945e+07 -6.882502042773e+06 -7.658493865615e+06 -1.025872247544e+07 -8.409274854645e+06 -8.686735363916e+06 -8.830808082519e+06 -7.583795935623e+06 -7.031965026572e+06 -1.215001638026e+07 -8.719808233707e+06 -8.682619345576e+06 -5.069929802588e+06 -8.006769665891e+06 -3.823762403828e+06 -2.658783362123e+06 -7.432229824877e+06 -6.827081370687e+06 -4.578267336658e+06 -5.829701414530e+06 -8.310717022305e+06 -8.358878017466e+06 -1.116100161156e+07 -6.404295913188e+06 -7.830708780401e+06 -9.267347732718e+06 -6.656364333469e+06 -1.177236428852e+07 -8.682081983786e+06 -6.880385735484e+06 -6.485521674477e+06 -7.347175022849e+06 -3.395911726223e+06 -4.133931748278e+06 -7.228586544849e+06 -1.164686250970e+07 -8.206980474907e+06 -5.987405829847e+06 -6.271341154060e+06 -1.024562693632e+07 -6.695044937510e+06 -1.135175496047e+07 -1.124431916090e+07 -6.693806486714e+06 -8.873502228135e+06 -8.733560733956e+06 -1.269646347815e+07 -7.300015141800e+06 -6.995092403496e+06 -1.092174736617e+07 -5.299338084312e+06 -3.491657364106e+06 -8.390524126424e+06 -9.044078518331e+06 -4.348648554121e+06 -5.771648694223e+06 -9.390422435961e+06 -7.910804509711e+06 -7.130278621200e+06 -1.231949427987e+07 -1.049487192916e+07 -7.052686650392e+06 -7.511410211558e+06 -7.633095783106e+06 -1.271815906033e+07 -7.232993926753e+06 -6.036952869601e+06 -1.023861651735e+07 -8.498292300910e+06 -5.822077754741e+06 -7.170346162562e+06 -1.338313926182e+07 -1.388351476505e+07 -7.248006279970e+06 -7.519303186264e+06 -8.148189636273e+06 -8.909666353669e+06 -6.420721591063e+06 -7.256538693271e+06 -1.398065938324e+07 -8.701581459297e+06 -8.425077177876e+06 -9.967631171931e+06 -7.811180978934e+06 -5.392334935239e+06 -7.492143330369e+06 -5.371064957255e+06 -3.598715483962e+06 -4.987256221466e+06 -7.346077082377e+06 -8.291230557533e+06 -8.163247560733e+06 -8.897880322210e+06 -9.120072465983e+06 -7.749463200332e+06 -9.656185219747e+06 -7.414696671815e+06 -1.143091923760e+07 -5.494798950193e+06 -5.883718684576e+06 -9.298022489487e+06 -9.324749674677e+06 -3.192288224211e+06 -2.097187081161e+06 -7.190054293889e+06 -1.046620061697e+07 -8.044359449833e+06 -8.690438475149e+06 -1.039153297598e+07 -6.051615934274e+06 -7.158801441126e+06 -1.329741178074e+07 -8.893045040711e+06 -8.301677599352e+06 -1.144891371224e+07 -7.169747520164e+06 -7.405699145092e+06 -9.659857563739e+06 -6.523383612571e+06 -6.699264565631e+06 -7.245687141174e+06 -1.389910011644e+07 -5.018315193049e+06 -4.580122810410e+06 -4.522905158215e+06 -4.945836254194e+06 -7.646016395041e+06 -6.307592099432e+06 -1.114660901438e+07 -6.913336975458e+06 -1.141715089544e+07 -7.311358133011e+06 -6.905835076355e+06 -1.148493017007e+07 -6.568192699022e+06 -1.022340938956e+07 -8.900285560713e+06 -8.450388648447e+06 -8.685700716802e+06 -8.419087066343e+06 -6.037236277087e+06 -5.827710501493e+06 -9.674516577351e+06 -6.419346517630e+06 -6.672090016780e+06 -1.199137192421e+07 -6.718164433895e+06 -1.101032622670e+07 -6.709974221110e+06 -8.885943938975e+06 -8.124936129001e+06 -5.292096764892e+06 -1.056444430175e+07 -6.428685553273e+06 -8.776070048974e+06 -5.352085027785e+06 -7.379164806647e+06 -1.129094518838e+07 -1.077059298938e+07 -7.547956139672e+06 -7.347118044560e+06 -5.638581072761e+06 -8.862749196983e+06 -8.121125533603e+06 -6.174962934536e+06 -9.608414895467e+06 -3.718909585952e+06 -2.915464466188e+06 -9.091982474402e+06 -7.797401547607e+06 -6.812390052788e+06 -1.201719392479e+07 -9.014230587060e+06 -8.973603877341e+06 -9.306488784415e+06 -7.353759103442e+06 -8.546529496826e+06 -5.254040822292e+06 -8.647558351642e+06 -7.967931720898e+06 -8.663161406515e+06 -8.560586079150e+06 -9.519360595064e+06 -5.789100726871e+06 -4.888451587565e+06 -6.436192219032e+06 -5.485620641931e+06 -8.299136005137e+06 -6.838219880764e+06 -8.538007953742e+06 -8.719389559424e+06 -8.363254066266e+06 -9.709881761480e+06 -6.821982821437e+06 -9.899849575745e+06 -7.649103072815e+06 -7.266048102192e+06 -1.259004191026e+07 -7.307584200579e+06 -7.321081607696e+06 -3.417484800047e+06 -4.079851814408e+06 -7.195383153676e+06 -4.579656802604e+06 -7.214523513454e+06 -4.691478332649e+06 -8.027254519446e+06 -9.590208509091e+06 -8.582778125335e+06 -8.778721470262e+06 -1.178090728418e+07 -6.689148521147e+06 -7.041834757629e+06 -4.501385259869e+06 -1.059909613529e+07 -7.498124360665e+06 -7.516688421676e+06 -9.907963876129e+06 -4.136718678216e+06 -6.161944044515e+06 -7.255061626084e+06 -1.409228423619e+07 -7.958647369725e+06 -8.832929689330e+06 -1.150252137060e+07 -7.414355087083e+06 -6.548547707690e+06 -1.164362191093e+07 -8.626606275967e+06 -8.682236502680e+06 -7.280222009700e+06 -8.942502665482e+06 -7.777844952476e+06 -1.010242559714e+07 -7.263493692549e+06 -7.751213290803e+06 -6.306986246943e+06 -1.080765742016e+07 -9.444295437430e+06 -7.534887918510e+06 -7.251695444320e+06 -1.400677182714e+07 -7.168209704588e+06 -5.105462599934e+06 -1.350163248059e+07 -7.180364737398e+06 -6.156727407702e+06 -8.790076500806e+06 -7.705179333244e+06 -8.578169121966e+06 -7.029570009146e+06 -9.334856272875e+06 -7.172965934433e+06 -1.341908035824e+07 -6.228501499004e+06 -4.189400948468e+06 -8.537105908797e+06 -8.056086066920e+06 -6.980665498350e+06 -1.251618276474e+07 -6.618977682802e+06 -9.412313087200e+06 -7.667252130653e+06 -9.235467148485e+06 -1.396933760711e+07 -7.248617254239e+06 -7.602459025056e+06 -1.060903320042e+07 -9.435719366997e+06 -8.014229937882e+06 -9.549924750829e+06 -7.007527043850e+06 -5.702635403154e+06 -7.248615534355e+06 -7.253442564615e+06 -1.405983036595e+07 -1.175042723908e+07 -6.978270669082e+06 -5.656097720694e+06 -6.467041367948e+06 -5.440916182473e+06 -8.703862383309e+06 -6.811233534206e+06 -1.233331995266e+07 -7.992658422331e+06 -9.479765949507e+06 -8.503872879885e+06 -8.723841581093e+06 -7.265565810580e+06 -1.201139766437e+07 -8.941255312695e+06 -8.994516581981e+06 -6.054840161797e+06 -7.448525902964e+06 -1.251103930095e+07 -7.276292463951e+06 -1.208256945150e+07 -6.724611570513e+06 -4.910276219232e+06 -3.323988519125e+06 -8.403798687639e+06 -8.712378324779e+06 -7.194292133395e+06 -1.290193143796e+07 -1.343379688964e+07 -7.164804775469e+06 -1.246179849059e+07 -6.934557917365e+06 -7.551317018839e+06 -8.867454878721e+06 -8.247743213182e+06 -8.776344916656e+06 -6.344769297113e+06 -8.383701590255e+06 -5.444451424974e+06 -4.626164774343e+06 -8.150280006729e+06 -7.019683902563e+06 -6.502685096049e+06 -5.648547555749e+06 -1.300759349740e+07 -7.164246801145e+06 -8.248125455362e+06 -6.486682518721e+06 -7.524173063632e+06 -1.049487919982e+07 -8.369894452963e+06 -8.418758664300e+06 -9.016668640649e+06 -8.273638621165e+06 -3.413017613268e+06 -2.497068111793e+06 -1.002299551032e+07 -7.358632641918e+06 -3.983331205303e+06 -5.017346939548e+06 -8.358878245041e+06 -7.432515751349e+06 -1.270204645461e+07 -7.055686711691e+06 -7.290601190796e+06 -4.749336837435e+06 -6.823487502612e+06 -4.759421767703e+06 -6.874699255269e+06 -1.237897297660e+07 -8.838800701182e+06 -8.775908276943e+06 -7.748148290289e+06 -9.898022014247e+06 -7.472968149891e+06 -9.374592276771e+06 -8.475477437227e+06 -7.033866699314e+06 -8.224037128116e+06 -9.289069396285e+06 -7.271143177459e+06 -1.343844269095e+07 -5.731965576155e+06 -3.760728078130e+06 -6.651660756635e+06 -6.606406444199e+06 -7.355723312890e+06 -1.200284139082e+07 -8.722580372316e+06 -8.433905559274e+06 -1.010576814215e+07 -7.665855724048e+06 -9.147982141514e+06 -9.110830552622e+06 -7.928093701749e+06 -5.480249218877e+06 -5.826282826026e+06 -8.415877991860e+06 -6.931054970452e+06 -9.864441751921e+06 -6.331014341756e+06 -9.623640058357e+06 -4.143396256418e+06 -2.749098475679e+06 -5.921036020593e+06 -6.053850962348e+06 -6.067181377254e+06 -7.074180304125e+06 -9.604412958095e+06 -7.708007828779e+06 -9.169186183944e+06 -5.929428712408e+06 -8.737105984156e+06 -7.803889555373e+06 -1.127677100251e+07 -6.487844563491e+06 -7.986350796970e+06 -8.010631420751e+06 -1.373529984063e+07 -7.233921153671e+06 -3.372433358678e+06 -2.377613222561e+06 -7.135970084604e+06 -7.083821830141e+06 -8.481443174806e+06 -8.883423915507e+06 -3.546488086736e+06 -4.917355484427e+06 -1.102859272981e+07 -7.092735955307e+06 -8.219498081449e+06 -9.287914729968e+06 -9.101655737766e+06 -9.053930388721e+06 -1.219591102925e+07 -7.097182461643e+06 -9.414857829126e+06 -9.393461990418e+06 -1.341989664848e+07 -7.213676019026e+06 -3.147363350218e+06 -2.112770593602e+06 -7.048212860608e+06 -1.258701638502e+07 -9.877535893095e+06 -6.018303350549e+06 -5.848411473450e+06 -8.802894591127e+06 -1.051883794724e+07 -7.360868293214e+06 -6.520337975909e+06 -7.083306229573e+06 -7.840948943501e+06 -5.052778875159e+06 -8.752865178155e+06 -8.881768251894e+06 -9.172290374709e+06 -7.938677095981e+06 -9.861768038715e+06 -5.828647619232e+06 -1.126170969301e+07 -6.397456329832e+06 -8.565535875232e+06 -8.601669156290e+06 -6.781992148361e+06 -7.884225723620e+06 -6.344395600728e+06 -7.971052447976e+06 -8.826348801131e+06 -8.598743043217e+06 -7.776687055387e+06 -4.900801139014e+06 -5.142024366527e+06 -5.348197472111e+06 -5.687390577896e+06 -7.578462371530e+06 -7.236662192321e+06 -1.315929570460e+07 -8.816655028464e+06 -5.418305030364e+06 -8.484864220006e+06 -8.645164069378e+06 -7.412824179864e+06 -1.083370472590e+07 -8.358558164163e+06 -6.303703617599e+06 -5.988760360121e+06 -9.968916942155e+06 -8.264356318255e+06 -9.109746260511e+06 -6.462217126593e+06 -5.879639044297e+06 -1.333347438791e+07 -7.236744357095e+06 -8.804313894590e+06 -5.430870159473e+06 -9.841308298312e+06 -6.217067357900e+06 -1.023240018421e+07 -6.040028558555e+06 -1.026648063043e+07 -7.713008458349e+06 -7.874306131830e+06 -7.343272575947e+06 -3.772303831365e+06 -4.235727299486e+06 -1.340666479778e+07 -7.272983191965e+06 -8.962933837267e+06 -8.149634816936e+06 -5.579295602252e+06 -4.176074094073e+06 -6.501112135690e+06 -1.080469240144e+07 -7.141363545819e+06 -1.178645025417e+07 -1.185518206023e+07 -7.301984939381e+06 -6.649014992019e+06 -5.302514535302e+06 -1.092823172697e+07 -6.984184308926e+06 -7.155835517906e+06 -8.133150125246e+06 -6.863626062258e+06 -1.049432773185e+07 -1.001127776282e+07 -5.908233470920e+06 -1.071157932950e+07 -6.615028887334e+06 -1.084985822946e+07 -6.251345921506e+06 -8.755199696897e+06 -8.279529298498e+06 -8.430770413663e+06 -8.736188031183e+06 -8.685805633415e+06 -8.716871066624e+06 -7.357094367966e+06 -1.201473337044e+07 -1.144871244173e+07 -6.483352300693e+06 -7.253142819347e+06 -1.425340170301e+07 -6.405421605884e+06 -1.093369984089e+07 -1.122857294163e+07 -7.250451637762e+06 -6.652410316615e+06 -8.115892857207e+06 -6.441839830411e+06 -4.178789547669e+06 -8.542643432782e+06 -8.713606929628e+06 -7.113357802108e+06 -8.644089911195e+06 -1.363597834567e+07 -7.252341511600e+06 -6.015043069758e+06 -9.713868939870e+06 -7.174594029240e+06 -1.010364461648e+07 -8.627034463804e+06 -7.494812880997e+06 -4.608433397415e+06 -3.149249843219e+06 -8.195109882242e+06 -8.416280248252e+06 -4.658545644249e+06 -6.712360885324e+06 -8.749430158158e+06 -8.470468695950e+06 -7.972084708089e+06 -9.033596369662e+06 -1.332349494831e+07 -7.176506305822e+06 -6.210916005627e+06 -4.047603158303e+06 -7.261955841837e+06 -8.460609825964e+06 -4.429016034973e+06 -3.080635042460e+06 -1.000067531775e+07 -7.155907062550e+06 -9.100548797905e+06 -9.049484839827e+06 -8.182515665460e+06 -8.658130893377e+06 -8.171389795926e+06 -8.909523782721e+06 -1.189476783499e+07 -7.142682986585e+06 -5.247912174644e+06 -7.589086888678e+06 -6.661414104178e+06 -1.004539218218e+07 -3.028728885804e+06 -2.046491712282e+06 -9.231918582616e+06 -8.097297391283e+06 -6.156892475377e+06 -8.407188277572e+06 -6.899459055558e+06 -7.173501215640e+06 -9.554517584049e+06 -9.543113269105e+06 -9.040813884037e+06 -7.367138538055e+06 -1.201400486095e+07 -6.949598405993e+06 -7.302742974743e+06 -1.155413099254e+07 -8.736467686127e+06 -8.676539982008e+06 -8.313950524512e+06 -8.176813038181e+06 -7.296307975591e+06 -1.070612497271e+07 -9.326244554479e+06 -5.608861284872e+06 -4.291163488748e+06 -3.109684794228e+06 -1.368724375372e+07 -7.241378437197e+06 -7.687851364404e+06 -8.412153379482e+06 -8.630081022094e+06 -8.505816940882e+06 -7.231771375131e+06 -9.702729539893e+06 -1.013376136125e+07 -6.889930995159e+06 -9.400589267567e+06 -5.669466630458e+06 -6.922078678046e+06 -1.112782900300e+07 -7.260331070359e+06 -1.391806470580e+07 -4.971191222990e+06 -5.251091886227e+06 -8.604821426526e+06 -8.529335213584e+06 -9.349830146522e+06 -6.450664887885e+06 -8.612507299580e+06 -8.810111682640e+06 -1.413309943352e+07 -7.254837685063e+06 -8.082570300986e+06 -5.026444672302e+06 -1.442528431774e+07 -7.248818370454e+06 -8.487035778957e+06 -7.779514811127e+06 -9.415412661760e+06 -6.619691887772e+06 -7.534456566041e+06 -8.649109625552e+06 -7.497072283921e+06 -1.104180850937e+07 -9.108571925492e+06 -6.891391299777e+06 -8.982526116830e+06 -7.699163534804e+06 -7.690130641829e+06 -7.684107172408e+06 -8.484937891086e+06 -8.450671080427e+06 -7.863542951248e+06 -8.100440054845e+06 -8.354191914465e+06 -7.860987692319e+06 -8.111442946093e+06 -8.290555620578e+06 -7.743942967206e+06 -7.758412494241e+06 -8.301282229278e+06 -8.597529327490e+06 -7.926215824645e+06 -8.344600355540e+06 -8.022120522806e+06 -8.570065474503e+06 -8.223967729114e+06 -8.037823352541e+06 -8.095734252627e+06 -7.920805605262e+06 -8.726773193680e+06 -8.204550594354e+06 -7.774975102465e+06 -7.777901169894e+06 -8.069537214863e+06 -8.327152718548e+06 -7.701513441863e+06 -7.618621892962e+06 -7.626987494459e+06 -7.702647229024e+06 -7.678269088805e+06 -7.727389199515e+06 -7.725751759813e+06 -7.654957745187e+06 -8.162517565081e+06 -8.761690591147e+06 -8.828538561704e+06 -8.149943257078e+06 -7.896806524613e+06 -8.097728527486e+06 -7.826445625020e+06 -8.620419440554e+06 -7.968153199762e+06 -7.826857986533e+06 -7.883380424752e+06 -8.250315224772e+06 -7.968009899609e+06 -8.239807769222e+06 -7.663929579248e+06 -7.666026060391e+06 
        </DataArray>
        <DataArray type="Float64" Name="STRAIN_XX" format="ascii">
          3.767101410977e-04 3.762219676054e-04 1.950527800064e-04 1.950606361989e-04 2.057718778234e-03 -5.765581487046e-04 3.216996444142e-04 3.282494260752e-04 2.056217852728e-03 -9.409297220745e-04 3.652264612011e-04 3.291551937612e-04 2.666967008004e-04 1.655544783912e-04 5.119976773163e-05 -7.446570880565e-05 -2.191565703123e-04 -3.485756230132e-04 -4.433135533423e-04 -4.807126803236e-04 -4.538151891174e-04 -3.679937913419e-04 -2.409980688021e-04 -9.630898743802e-05 4.344368349643e-05 1.618023063203e-04 2.571310946185e-04 3.217070923168e-04 3.614292122947e-04 3.785708567491e-04 3.868866381959e-04 3.953176555171e-04 3.984606206745e-04 3.899341916341e-04 3.669941499619e-04 3.273294203975e-04 2.783840933406e-04 2.304576693515e-04 1.977005354687e-04 1.853092582070e-04 1.927193733906e-04 2.100296907582e-04 2.277277385106e-04 2.359241778837e-04 2.320036583875e-04 2.193370829337e-04 2.032441951789e-04 1.921253152797e-04 2.047330308118e-04 2.462655930184e-04 3.108515714872e-04 2.739813462207e-04 2.112429906949e-04 1.281415345632e-04 2.742950284581e-05 -8.053748351107e-05 -1.858741369287e-04 -2.760181611545e-04 -3.365071144065e-04 -3.622105813887e-04 -3.437133890788e-04 -2.891023482276e-04 -1.981507378614e-04 -9.461054091549e-05 1.192366842361e-05 1.137513648283e-04 2.002449416196e-04 2.646835540342e-04 3.104252819053e-04 2.504149679088e-04 2.087873576780e-04 1.911407461355e-04 2.010100683042e-04 2.168649077183e-04 2.313219313650e-04 2.360360489021e-04 2.293605615218e-04 2.127866330213e-04 1.947975739423e-04 1.850481120086e-04 1.946461638212e-04 2.252228346830e-04 2.711084195732e-04 3.206390852885e-04 3.625695611924e-04 3.887802306843e-04 3.982249088754e-04 3.964059861173e-04 3.882192276362e-04 3.802473150502e-04 1.895699576603e-04 1.703051111719e-04 1.355671201859e-04 8.841209028344e-05 2.732300518928e-05 -4.376595641832e-05 -1.158871611424e-04 -1.835864980761e-04 -2.301714659460e-04 -2.475092712630e-04 -2.319956253195e-04 -1.859704219553e-04 -1.202135066256e-04 -4.666385230641e-05 2.271817969443e-05 8.483580636541e-05 1.338983256386e-04 1.682284886120e-04 1.885748609444e-04 -6.056093337802e-04 -6.805119535524e-04 -7.817031706343e-04 -8.776267087332e-04 -9.524018509960e-04 -9.718439126019e-04 -9.011363132744e-04 -7.403399886992e-04 -4.748558670689e-04 -1.061105223084e-04 3.392875183016e-04 7.980085323254e-04 1.275773353573e-03 1.679535024854e-03 1.960260381810e-03 1.945784743250e-03 1.669732018494e-03 1.306829623725e-03 8.477374198638e-04 3.642553915884e-04 -5.789198127977e-05 -4.032861875236e-04 -6.936715436026e-04 -8.822413096481e-04 -9.864329885666e-04 -1.031605471376e-03 -1.039536273358e-03 -1.014448747248e-03 -9.777530124654e-04 -9.471836307751e-04 -9.526214582531e-04 -9.824868937451e-04 -1.017795510708e-03 -1.041626635430e-03 -1.046208783450e-03 -1.010961291132e-03 -9.037210412089e-04 -7.271328486637e-04 -4.612958208317e-04 -1.071183107138e-04 3.208879781507e-04 7.661599565572e-04 1.236126002458e-03 1.643149414564e-03 1.938702625758e-03 1.965949968247e-03 1.703743073636e-03 1.349287045064e-03 8.830364866541e-04 3.821895058990e-04 -5.789722725071e-05 -4.151987492993e-04 -7.100598568659e-04 -8.838113072484e-04 -9.529683721978e-04 -9.435777326983e-04 -8.854510631930e-04 -7.841061307244e-04 -6.802917935786e-04 -5.985737711174e-04 2.354587117208e-04 2.955367382089e-04 2.098984938592e-04 1.824064538239e-04 2.645272921045e-04 2.575858313567e-04 3.514944544244e-04 2.113218967902e-04 -1.679273108598e-04 -5.018323217239e-04 -2.880680236774e-04 -6.959803480849e-04 3.050968320097e-04 3.761817077552e-04 -3.700234627567e-04 -2.363734420914e-04 2.234332262681e-04 2.348957343883e-04 5.182903134633e-05 8.926835012761e-05 3.459513614367e-04 3.645067080901e-04 -8.561390671815e-04 -6.625666228035e-04 4.403858241509e-04 3.702601351557e-04 3.675130902222e-04 4.488914441600e-04 -8.874671645446e-04 -6.906470744238e-04 -5.197328485483e-04 -3.687180839204e-04 3.703955151308e-04 2.537613995793e-04 6.033828611060e-05 5.148334058670e-05 -1.482679464531e-04 -6.464955206452e-05 1.908303220278e-04 3.173739321694e-04 2.454464508770e-04 3.647449237018e-04 3.390584198681e-04 2.104269773358e-04 -2.912006607298e-04 -4.721959647479e-04 2.978562798506e-04 3.584202380360e-04 -5.760689072906e-04 -4.204455393343e-04 1.872051175053e-04 2.231805475290e-04 -3.265883218518e-05 -7.599970045961e-05 2.587040870792e-04 3.096959665599e-04 1.566793379885e-04 1.093370156377e-04 3.426907243208e-04 2.483385395215e-04 2.874615191266e-04 3.652324820480e-04 1.160614817719e-04 8.704213747479e-05 5.181435278061e-05 5.199940066294e-05 -4.364079089525e-04 -2.781702863988e-04 -3.971195421121e-06 -7.915983625793e-05 2.552062746349e-04 1.907254949448e-04 6.185443238917e-04 6.590246554885e-04 -9.130678714853e-04 -7.070430820835e-04 2.471282504135e-04 2.277387762303e-04 -5.025279119365e-04 -2.935151644364e-04 7.595626670259e-04 7.522634599386e-04 -1.037819790248e-03 -8.086529429212e-04 -2.839324936612e-04 -3.576794079035e-04 -3.991502804102e-04 -5.732778580472e-04 3.103293996545e-04 3.861287110122e-04 2.115050430687e-04 2.518545372074e-04 2.384896935045e-04 3.640585568815e-04 -5.413113147897e-05 8.916725772311e-06 -4.244411059457e-04 -5.488306477157e-04 5.832220457347e-04 5.151464827508e-04 -9.315416893879e-04 -7.215813465483e-04 -1.134930887961e-04 -2.194764098312e-04 3.646431066421e-04 2.790911331271e-04 3.552393323684e-04 2.714960626179e-04 2.179208918044e-04 3.074248562370e-04 -6.342577032316e-04 -4.586641828720e-04 4.388745823501e-04 5.007664840900e-04 -5.353311104992e-06 5.263498045825e-05 1.709880822826e-04 1.172949660523e-04 2.321278871867e-04 1.919115017960e-04 3.432926452530e-04 2.414935355720e-04 -4.344895277167e-04 -6.029103778795e-04 -3.566589340717e-04 -1.987820714460e-04 2.742271115247e-04 3.380276660771e-04 3.855594835034e-04 2.370550649400e-04 3.543527001745e-04 1.864304009965e-04 3.300790909372e-04 2.238731220952e-04 2.410927360622e-04 2.723178407554e-04 -8.559720803480e-05 -8.408265831591e-05 3.141652568004e-04 2.760418727607e-04 -8.372062076943e-04 -6.427904688136e-04 2.895757692903e-04 2.573641135758e-04 2.612503069701e-04 3.600753490336e-04 -5.925278115844e-07 -6.405576905685e-05 -2.179838538888e-04 -1.151327020122e-04 4.158789581639e-04 3.322147983679e-04 6.845547194401e-05 7.917239127690e-05 -5.792949965545e-05 -1.304213362354e-04 2.653146566062e-04 3.169265652902e-04 -6.055978891731e-04 -7.650174340104e-04 2.093286586536e-04 1.906441092960e-04 2.652072306350e-04 3.639427150507e-04 -5.885133813359e-04 -3.852555803744e-04 -6.747647891631e-04 -4.999346805361e-04 1.881349254200e-04 3.593197393974e-04 -6.419196134275e-04 -8.214999619622e-04 6.805939971136e-04 7.321497378482e-04 2.247419236757e-04 3.843686779987e-04 -1.517397566877e-05 6.615759674562e-06 1.290057814651e-04 1.318339657825e-04 2.490511662155e-04 1.814728891459e-04 2.408048742072e-04 3.839067173346e-04 8.363008673613e-04 7.973605135756e-04 -1.040985513914e-03 -7.991429585343e-04 2.616010648111e-04 1.455245476652e-04 2.164635426912e-04 3.255158997347e-04 -1.427397907204e-04 -2.393906850265e-04 -3.511362196816e-04 -4.055137269270e-04 -2.756273361248e-04 -4.884019564746e-04 3.682449137488e-04 2.356725905863e-04 1.911149707425e-04 2.613294513746e-04 -2.906680364389e-04 -1.694543772548e-04 1.991386052647e-04 1.912923235808e-04 1.711708406986e-04 1.790648829405e-04 2.443169838899e-04 2.448910165464e-04 2.798605652622e-04 2.077525540016e-04 -7.438178758917e-04 -5.538947525580e-04 -1.868840183826e-04 -3.090092622802e-04 2.990702238297e-04 2.443242196097e-04 1.608588740896e-04 2.021321051930e-04 -1.754134993085e-04 -3.282225568922e-04 3.014544882684e-04 3.867839102966e-04 -5.418569650024e-04 -7.217245280199e-04 -2.386891236409e-04 -3.819157067991e-04 1.012994270903e-03 1.019930485449e-03 -3.361319081632e-04 -3.045896920777e-04 -1.030417615809e-03 -7.822939146143e-04 -5.645271546905e-04 -3.726612909355e-04 4.431052424269e-04 4.105531503607e-04 3.860198045302e-04 2.217238627390e-04 3.703952065520e-04 4.327947254409e-04 2.144132302962e-04 2.887039880670e-04 -9.598415176367e-04 -7.566748517108e-04 -2.062435511607e-05 -1.004675568247e-04 1.455766826041e-04 1.214257497655e-04 5.077737144556e-05 7.007814702552e-05 2.857889106064e-04 3.393409222615e-04 1.730974158785e-04 1.700178703700e-04 3.704058198252e-04 2.811661305003e-04 3.346347629204e-04 4.120548910602e-04 -2.187402767917e-04 -1.095662566822e-04 7.469130994044e-05 2.948084141593e-05 1.501276787779e-04 2.782166256568e-04 2.045412120417e-04 2.060426989985e-04 4.217544280706e-06 -1.688447980495e-05 2.867766347115e-04 3.375293123264e-04 2.873214309279e-04 3.743989045482e-04 2.363825665406e-04 2.248036600489e-04 3.538618585062e-04 2.881257857377e-04 2.254152473323e-04 3.150251382528e-04 -6.341295853146e-04 -4.400669270143e-04 1.016854774685e-03 1.038576753818e-03 2.833533294612e-04 1.718332342338e-04 1.349966702905e-04 8.145344825871e-05 2.939862237342e-04 2.016274825940e-04 3.580325470368e-04 2.879342792247e-04 -6.652260158661e-04 -5.540325977509e-04 -3.292654192278e-04 -2.156972561197e-04 -9.603239974885e-04 -7.431402031057e-04 4.291956371769e-04 4.668342076046e-04 -7.450831377699e-04 -9.394994913787e-04 -7.857888308701e-04 -5.967281897885e-04 4.553928434892e-04 3.792271419344e-04 -1.085970025202e-04 -2.774124812262e-05 3.648338087892e-04 2.613795595954e-04 -7.420289398879e-04 -5.610828547876e-04 -4.165544606522e-04 -2.246051764421e-04 5.111908018712e-04 5.230492077493e-04 3.823360576321e-04 3.125793903347e-04 -4.785521746327e-04 -3.295942971585e-04 -9.574873266882e-04 -7.502565211179e-04 -7.395033707864e-05 -2.796139855490e-05 3.513525345633e-04 2.567576831116e-04 3.140784424948e-04 2.361981947112e-04 2.427945090356e-04 2.136452766620e-04 -3.019056867615e-04 -1.746862353271e-04 2.633360387703e-04 3.267355710189e-04 2.023034629500e-04 2.257856131264e-04 -4.518695464231e-04 -3.020265718726e-04 -6.440152739392e-04 -7.505982499526e-04 -5.599329272686e-04 -7.398697982476e-04 2.385178827418e-04 3.079326710059e-04 3.697434407825e-04 2.433131230104e-04 -6.280743660961e-04 -4.420332822681e-04 2.083687786131e-04 3.845759075942e-04 5.026940273072e-04 5.659883796936e-04 1.307334041957e-03 1.309320948073e-03 -1.034858943619e-03 -7.539238843545e-04 -2.120463390687e-04 -2.956342647732e-04 -3.111251907786e-04 -4.641286588249e-04 4.556169652036e-04 5.301937327693e-04 2.537271184662e-04 3.724416103171e-04 4.041697165473e-04 4.689302797012e-04 9.384355491044e-05 1.085924554279e-04 -6.446995625301e-04 -8.337908022681e-04 -2.730831465855e-04 -4.960020029987e-04 2.276419995973e-04 1.854578962221e-04 -1.564499403682e-05 1.706849075516e-05 2.347484531881e-04 3.620492884432e-04 2.534061976026e-04 2.859774091651e-04 3.865424958493e-04 3.012373602483e-04 1.199448432288e-04 1.624838593470e-04 8.379184708409e-04 8.035259637194e-04 -5.442878774291e-04 -7.279652218177e-04 -1.008117466605e-03 -7.642824747965e-04 2.266336270240e-04 1.859237985358e-04 -4.001798911609e-04 -5.294453546588e-04 6.411406133666e-04 6.785501048392e-04 -4.642211764288e-04 -2.887220514588e-04 2.406402008917e-04 3.310628600058e-04 -1.926724463418e-04 -3.388490026632e-04 3.164546425797e-04 2.752056335759e-04 1.411385681356e-04 1.606225240926e-04 -7.343101221017e-04 -8.850797991017e-04 2.180648083677e-04 3.391124858697e-04 -2.204840067021e-05 3.992142815926e-05 -1.250626395792e-04 -2.335049446593e-04 -1.184515533112e-05 -7.000635024989e-05 -4.201764006376e-05 8.304070156887e-06 6.285312204848e-04 5.908515559514e-04 3.862259129752e-04 2.093012185134e-04 1.969147897963e-04 2.522826501117e-04 -1.023255500149e-03 -8.044400846278e-04 1.855333176756e-04 2.284354757539e-04 -4.726092228338e-04 -6.278611051873e-04 3.125591148399e-04 2.217038753833e-04 1.612918605728e-04 2.490824769677e-04 2.989193793761e-04 2.320154719615e-04 2.986447837538e-04 3.399649466378e-04 3.298687106048e-04 1.885573544748e-04 -3.714304978762e-04 -5.529156136928e-04 -1.824570281342e-04 -8.388250043683e-05 -1.553196094127e-04 -2.985968804109e-04 3.138486554239e-04 1.635564451770e-04 3.543715459345e-04 4.273651952147e-04 1.353721945049e-04 1.551799075311e-04 1.865854178856e-04 3.672949116710e-04 5.875404953010e-04 5.240049770349e-04 3.368368702966e-04 2.207165905806e-04 -1.702179942426e-04 -2.850384879268e-04 -9.757801344336e-04 -7.627581662502e-04 -4.013817848995e-04 -5.615339801351e-04 1.965256486388e-04 1.979703730497e-04 2.436278386661e-04 2.637804935072e-04 2.371109473442e-04 3.408136770878e-04 2.344959760027e-04 3.926570974306e-04 -3.466803327576e-04 -3.615701553024e-04 1.263836307322e-03 1.257536530678e-03 -1.030471390187e-03 -7.418397809320e-04 2.502692003216e-04 3.402829166405e-04 3.225624099664e-04 3.999181359588e-04 -6.221001044393e-04 -4.229973516600e-04 -2.215331091145e-04 -4.182699118089e-04 2.415472048368e-04 1.959023805369e-04 3.163043635894e-04 2.144436154391e-04 2.739841567514e-04 3.678692596940e-04 -7.960900148621e-05 -5.548472390839e-05 7.201830359939e-05 1.262306741746e-04 -6.574715742601e-04 -6.026124005459e-04 -6.250124345680e-04 -6.809387814006e-04 1.461468623381e-04 1.499165672631e-04 1.822559322849e-04 1.521249837030e-04 3.688438908051e-04 2.327207401966e-04 1.165499695845e-04 1.338176198413e-04 8.434602236713e-05 5.385257049059e-05 2.173176617685e-04 1.861985903257e-04 2.544761135632e-04 2.271560977118e-04 -3.271470308989e-04 -3.334090699376e-04 3.567933958585e-05 7.769742009450e-05 -3.186571384332e-04 -5.322135110952e-04 6.444582295406e-05 3.915755697426e-05 2.397830017823e-04 2.606834827013e-04 -5.411400959333e-04 -3.811273276789e-04 -1.539256028161e-04 -6.640004984054e-05 -7.573916113197e-04 -5.633859562057e-04 2.372967539883e-04 3.825492635039e-04 3.826343377102e-04 2.372871953502e-04 -1.237747177990e-04 -4.814535408951e-05 3.031440729814e-04 2.369632136624e-04 -5.963888015588e-05 -1.486017282575e-04 -9.579663738696e-04 -7.693610832509e-04 3.456254568319e-04 2.577027001435e-04 -6.059824465536e-05 -1.390583248265e-04 1.076240358643e-03 1.086842688568e-03 3.706895430654e-04 2.867740851417e-04 -7.624500627705e-04 -5.705255225033e-04 4.213722732704e-04 3.403898769411e-04 3.409191333368e-04 3.254015932458e-04 -5.462853581886e-04 -3.759642124075e-04 -3.025812357051e-04 -4.296537297791e-04 -2.741089713981e-04 -4.150465046843e-04 2.691319956726e-04 3.069773457787e-04 3.867054961970e-04 3.340194825906e-04 2.528947145439e-04 2.239344292100e-04 3.554231341566e-04 2.437396966926e-04 2.025378038294e-04 3.591863951398e-04 1.757426089387e-04 2.040494565941e-04 -7.501465083635e-04 -8.893109795961e-04 -8.874899593620e-04 -6.909642484857e-04 -7.816978724998e-04 -5.949943614360e-04 2.010965542306e-04 2.937465532709e-04 4.484971895390e-04 4.888990158843e-04 -2.717138455348e-04 -1.470220899192e-04 -8.960674624468e-04 -6.990803886970e-04 3.781641363188e-04 2.457260081850e-04 2.588127749674e-04 3.661527348754e-04 -6.675012738287e-04 -8.635871362730e-04 1.870718103577e-04 3.692188202666e-04 2.698499998772e-04 3.486593622312e-04 3.949414883536e-04 2.334214681666e-04 -3.210088721136e-04 -5.233187613934e-04 1.934258548154e-04 1.973988465977e-04 2.999499121266e-04 3.748954293758e-04 2.217209976970e-04 3.445491244421e-04 2.890618905033e-04 3.470343169906e-04 -2.676377107640e-04 -4.307310687224e-04 3.660039671927e-04 2.713598383542e-04 1.137911014679e-04 2.106791296941e-04 -4.206046483058e-04 -2.835564546752e-04 -5.466943690044e-05 -1.998602669106e-05 5.610880217366e-05 -8.769050575417e-07 3.339431769828e-04 4.177113589979e-04 2.748547603338e-04 3.312287374270e-04 -9.998210283882e-05 -2.039806775248e-04 -8.449486326197e-04 -6.509047155479e-04 4.927595536163e-04 4.153361369236e-04 5.911560738536e-06 -2.622944939808e-05 1.853996255422e-04 1.862531217748e-04 2.646195923588e-04 3.569250717980e-04 2.107224736695e-04 1.125184299332e-04 2.343909110772e-04 3.759165795054e-04 2.935873611890e-04 2.067733711372e-04 3.195881301907e-04 2.646464459300e-04 -2.286123138809e-05 -8.558223035332e-05 1.684600359233e-04 3.275989643141e-04 1.634133015343e-04 1.284598219989e-04 -1.270813619915e-04 -1.581618310229e-04 -4.368138835650e-04 -6.095799695716e-04 -2.524009035787e-04 -4.420611338089e-04 2.075279473170e-04 2.977325462639e-04 1.928358647451e-04 2.098781581250e-04 2.145740362183e-04 3.559071278338e-04 6.997017929953e-04 7.169412327944e-04 8.083422582453e-05 5.404661189524e-05 3.655976572891e-04 2.064619826306e-04 -4.485531665352e-04 -2.613801308884e-04 -9.939650070257e-04 -7.726536160838e-04 3.220009362323e-04 3.668073971448e-04 1.608479278563e-04 2.747408507784e-04 -9.824672293934e-05 -4.297672426122e-05 -1.104120018869e-04 -4.416752439810e-05 2.986251991864e-04 3.839276453690e-04 2.354570494262e-04 2.880452641043e-04 1.612871221628e-04 1.437876281256e-04 -5.370801964573e-04 -4.454984584807e-04 3.431863537538e-04 2.888238732079e-04 -1.550897487869e-04 -1.210153043563e-04 2.124045859005e-04 1.287770649644e-04 2.068433801590e-04 2.037826971541e-04 2.449019439650e-04 3.749754278516e-04 7.533016385413e-04 7.362881171159e-04 2.432240440004e-04 1.909229640755e-04 -9.964774520147e-04 -7.616140588289e-04 3.664192609731e-04 2.667647178230e-04 -5.724039095021e-04 -7.208198712178e-04 4.084270893981e-04 3.321152192289e-04 6.945838465681e-05 5.831140648052e-05 -7.554516432616e-04 -5.713941846210e-04 -5.882594397113e-04 -4.262270723043e-04 -1.169555265726e-04 -2.285436559394e-04 5.416315105407e-04 5.269228675867e-04 2.312480173555e-04 3.442945472151e-04 2.783866041697e-04 3.693302546354e-04 3.482957508671e-04 2.931100388448e-04 1.885992927473e-04 2.554829614105e-04 1.952838511409e-04 3.783428243828e-04 -9.929767908209e-04 -7.819631631068e-04 -1.009284126233e-04 -1.232000877452e-04 2.249756619333e-04 3.952903336357e-04 2.260142081485e-04 2.012241997609e-04 3.579394625974e-04 2.371290174164e-04 9.415901345395e-04 9.216985208024e-04 -3.174493922069e-04 -1.944407700023e-04 -6.804448717547e-05 -1.621457160306e-04 2.388234714460e-04 2.833767259239e-04 3.582223186979e-05 -2.178636512070e-05 -1.053176005578e-03 -8.047406134706e-04 -3.479094925180e-04 -3.381501670116e-04 4.223668756644e-05 2.947649008020e-05 3.468302450456e-04 2.447777475456e-04 -2.591993961184e-04 -1.452785826404e-04 3.901060178872e-04 3.055677441630e-04 -3.700943111542e-04 -2.197470876496e-04 5.381249971987e-04 5.147890046457e-04 3.343378371182e-05 2.478168596697e-05 -1.008091224488e-03 -7.547516073927e-04 1.257055587394e-04 9.775512672873e-05 1.863748390735e-04 2.138606195019e-04 -6.790914625453e-04 -8.778625903419e-04 2.940896528003e-04 2.156057457808e-04 1.890451489376e-04 2.561257097422e-04 1.139948057822e-03 1.146684285319e-03 2.263927553174e-04 1.528477722974e-04 1.327854174108e-03 1.331898467037e-03 -4.765376292095e-04 -2.527123919874e-04 -1.018677807487e-03 -7.363792274066e-04 7.366441518530e-05 9.370815325309e-05 -4.050390283853e-04 -2.587931027639e-04 -1.243330570723e-04 -2.329333367459e-04 3.682595026740e-04 2.540273793908e-04 7.703491854381e-05 1.022996080252e-04 -6.741860401122e-04 -4.976364537773e-04 7.118591949669e-04 7.567975061949e-04 3.123596825252e-04 2.288424422659e-04 -6.671444319292e-04 -4.698008199492e-04 -5.614285393216e-04 -3.571057340529e-04 2.861051116668e-04 2.907505435194e-04 2.445575073771e-04 2.820452004152e-04 1.684416951726e-04 1.607714932846e-04 2.043919058187e-04 1.892912334987e-04 -8.101284636793e-04 -6.187526422877e-04 -5.759625799577e-04 -5.882276937689e-04 -3.979802687704e-05 -1.187657603551e-04 1.772661263671e-04 3.232592256214e-04 -6.886468891216e-04 -5.033624243443e-04 2.153228992185e-04 2.306032427981e-04 2.458826318197e-04 3.781375095440e-04 1.265061764660e-04 1.491294457837e-04 -3.205577435248e-04 -4.835533964091e-04 1.888925836195e-04 2.454023978798e-04 -1.392500375762e-04 -1.314140145206e-04 3.142888490656e-04 1.706273480642e-04 -6.673676417832e-04 -4.852605912171e-04 -1.711120201628e-04 -7.731875607566e-05 -5.445380624389e-04 -3.650286804202e-04 3.557614035305e-04 2.261453609343e-04 3.759626730993e-04 3.135880301315e-04 -7.770119435872e-04 -8.685065564847e-04 3.792365596642e-04 1.958552459654e-04 2.744331727729e-04 2.110991044530e-04 -6.872014260416e-04 -5.226640920631e-04 -5.979736482805e-05 -1.434766754009e-04 1.936846226807e-04 2.900331512409e-04 3.715259307008e-04 2.229573404401e-04 -2.471575873812e-04 -1.621398531825e-04 2.464945337562e-04 1.936280624285e-04 3.033667756442e-04 3.655806913109e-04 1.846478126481e-04 2.138708250450e-04 -6.272567462589e-04 -4.347599728559e-04 2.776372017498e-06 4.362387331976e-05 -5.575956568986e-04 -3.637589548588e-04 2.920688916099e-04 2.423448729338e-04 1.991852503005e-04 2.249410127099e-04 4.193933481209e-04 4.252940525652e-04 2.248068879390e-04 3.957845629615e-04 -5.123258150210e-04 -3.176692452380e-04 1.756032593412e-04 3.448057566879e-04 -1.918327576446e-04 -3.266182243812e-04 3.503058623640e-04 2.330744902221e-04 2.358686105285e-04 2.593397956749e-04 -9.381464932756e-04 -7.366388957968e-04 6.511433786398e-04 7.048559608617e-04 2.992385973100e-04 3.608229570581e-04 -3.084310108097e-04 -1.579252101669e-04 -2.102468783413e-04 -3.417187435143e-04 2.606326192709e-04 3.418062312689e-04 3.999471877847e-04 3.187335312085e-04 -9.960429027539e-04 -7.696494932621e-04 5.481059710276e-04 6.084715833336e-04 -4.646159060951e-04 -6.334218235186e-04 4.813344451226e-04 4.289882029312e-04 2.346312584912e-04 3.137656344988e-04 -4.685931130666e-04 -2.505721682376e-04 -9.570331565288e-04 -7.531636409441e-04 3.138410245669e-04 3.839096421139e-04 -9.822774821062e-04 -7.568266290581e-04 3.409066296997e-04 2.635075777584e-04 8.940857808565e-04 8.700340828405e-04 3.892030567782e-04 4.628803886570e-04 2.156962782933e-04 2.764627184602e-04 2.856026517372e-04 1.890825044193e-04 -2.767066980827e-04 -4.156550686310e-04 1.474195015242e-04 1.427224998613e-04 -1.013077681760e-03 -7.293179677236e-04 2.760636939226e-04 2.018021465645e-04 9.323061082768e-05 4.914288780947e-05 1.077114523762e-04 1.438944600171e-04 1.502291823275e-03 1.502162694012e-03 3.759831744424e-04 2.953350969381e-04 8.599131249459e-05 7.861348565883e-05 2.295159570412e-04 3.681725077274e-04 9.215904693366e-04 9.318349317795e-04 6.161241775740e-04 5.659945478947e-04 2.490462036044e-04 3.605180045482e-04 -6.949930532336e-04 -5.022138458785e-04 -9.455372095991e-04 -7.328955155273e-04 -1.835227942616e-04 -9.228662410417e-05 3.581432229326e-04 4.391533139213e-04 2.797753405339e-04 2.644803356463e-04 2.757696728688e-04 3.568431119793e-04 2.528191621771e-04 2.154302030698e-04 -6.487039687416e-04 -4.622491451840e-04 1.573617351546e-04 1.911630911881e-04 1.631854586235e-05 1.962112989460e-05 -5.812276503945e-04 -6.057280147451e-04 2.249508738237e-04 2.176646126611e-04 1.020337356279e-04 1.277046415290e-04 1.901770159621e-04 2.033012504678e-04 2.719748437081e-04 1.418522860218e-04 -8.109771781181e-04 -6.175260165670e-04 3.738665712673e-04 1.893655367523e-04 4.419692028597e-04 3.598673673593e-04 1.852082659809e-04 1.847043836599e-04 3.177917947314e-04 4.000710334509e-04 2.368573715553e-04 3.898457998175e-04 3.048730747161e-04 2.641812807971e-04 3.654210419653e-04 2.780843899499e-04 2.067340820584e-04 2.108846932785e-04 -2.482104260301e-04 -2.218182814785e-04 1.161393780682e-04 -1.415119268140e-05 -1.668141378021e-04 1.149535541049e-04 -2.304857046278e-05 -1.268624805840e-04 1.877417196788e-04 1.643633914808e-04 -2.365835942016e-04 -2.357106947916e-04 5.211834011180e-05 -1.066343182161e-04 5.387477126095e-05 -2.047134773124e-04 -2.078177942813e-04 5.558669902665e-05 -8.991558624792e-05 4.974410311739e-05 -2.773529255903e-04 -1.705127471098e-04 1.834305683810e-04 1.484631485494e-04 -6.328367311264e-05 -8.570097897444e-05 1.990264869764e-04 2.569755692958e-04 2.507367336403e-04 1.986729556924e-04 2.275621626867e-04 1.819990750737e-04 1.839320749733e-04 2.423559754853e-04 -2.361912677110e-04 -2.632745376262e-04 -2.947104680549e-04 -2.068954734954e-04 1.348310916845e-04 -1.548761607291e-04 1.104402804771e-04 -1.985948283689e-04 -1.649686636092e-05 1.075038068901e-04 1.384312465835e-04 -2.826080353131e-05 -8.095271416963e-06 -2.343101382389e-05 2.211768630600e-04 2.199074972789e-04 
        </DataArray>
        <DataArray type="Float64" Name="STRAIN_YY" format="ascii">
          -8.252996816144e-04 -8.169047035828e-04 -6.818274503851e-04 -6.725402974303e-04 -4.486203070680e-03 2.205321341608e-04 -4.582209566022e-04 -4.543948313744e-04 -4.483824551018e-03 3.533456651831e-04 -8.084395595639e-04 -7.625607648039e-04 -6.834297832012e-04 -5.581351468347e-04 -4.123008770323e-04 -2.530032996689e-04 -7.442231006767e-05 8.301408728129e-05 1.965166805978e-04 2.452788387011e-04 2.125267259940e-04 1.065692959581e-04 -4.742517606684e-05 -2.266428205441e-04 -4.005376858211e-04 -5.504244714546e-04 -6.702748913792e-04 -7.561199350173e-04 -8.013610062937e-04 -9.169176024411e-04 -1.029896147834e-03 -1.147348850295e-03 -1.273703212506e-03 -1.374120429980e-03 -1.449431659750e-03 -1.504011924618e-03 -1.533764652029e-03 -1.538873540296e-03 -1.530966114163e-03 -1.510843343626e-03 -1.482088994871e-03 -1.437352328104e-03 -1.374655942076e-03 -1.289349161976e-03 -1.182853696764e-03 -1.064286324569e-03 -9.375701939323e-04 -8.063902226977e-04 -5.822109638448e-04 -5.055636537652e-04 -4.547264273775e-04 -4.382071811875e-04 -4.126807104931e-04 -3.760559724522e-04 -3.342878528690e-04 -2.870959797353e-04 -2.433981896869e-04 -2.037752394657e-04 -1.793998093535e-04 -1.666953999351e-04 -1.758089220319e-04 -1.976418154351e-04 -2.375336464657e-04 -2.817983041756e-04 -3.259723115006e-04 -3.707867228502e-04 -4.064408086656e-04 -4.344413321743e-04 -4.507012167223e-04 -4.978709373927e-04 -5.743337891450e-04 -7.927298650848e-04 -9.172178927617e-04 -1.043971143729e-03 -1.176393398311e-03 -1.281831277558e-03 -1.363370348639e-03 -1.429309369483e-03 -1.477223998933e-03 -1.507482222857e-03 -1.528859236127e-03 -1.538492981442e-03 -1.535330866265e-03 -1.510182086816e-03 -1.459724969383e-03 -1.381473058775e-03 -1.279454007496e-03 -1.166711784106e-03 -1.048315575570e-03 -9.297991804120e-04 -6.698017876312e-04 -6.596047789855e-04 -6.451098341510e-04 -6.192270224449e-04 -5.813019225618e-04 -5.378430905392e-04 -4.825972522132e-04 -4.341785435679e-04 -3.986652683793e-04 -3.880585578999e-04 -3.975549147060e-04 -4.323809709576e-04 -4.817261369653e-04 -5.356951207551e-04 -5.769713785687e-04 -6.177877979762e-04 -6.443653455099e-04 -6.626053734448e-04 -6.748356870055e-04 2.220023042034e-04 2.333232718915e-04 2.259371863116e-04 1.812351689709e-04 8.563265913107e-05 -8.694552676624e-05 -3.637387993208e-04 -7.338667722857e-04 -1.202091506011e-03 -1.760457766195e-03 -2.371532144827e-03 -2.969611761868e-03 -3.567244429992e-03 -4.039115452675e-03 -4.375733026805e-03 -4.347942474756e-03 -4.023883161531e-03 -3.568456522909e-03 -2.999112105907e-03 -2.368469240834e-03 -1.773567839036e-03 -1.255818389408e-03 -7.797571442293e-04 -4.062358335931e-04 -1.348539661224e-04 6.355240990984e-05 2.019081056295e-04 2.834169209885e-04 3.239905788028e-04 3.439524908815e-04 3.481314203793e-04 3.353642669501e-04 2.972259952985e-04 2.221687955704e-04 1.007678379734e-04 -8.389422239848e-05 -3.599086482916e-04 -7.177070359960e-04 -1.167839560567e-03 -1.703782126026e-03 -2.297671992362e-03 -2.888110085761e-03 -3.487990353340e-03 -3.976418710443e-03 -4.340384970105e-03 -4.379200812683e-03 -4.082896827831e-03 -3.647563382855e-03 -3.082334069505e-03 -2.442232899575e-03 -1.829834469174e-03 -1.293598147633e-03 -7.962591722704e-04 -4.100226975268e-04 -1.381467526811e-04 4.782815291349e-05 1.646658764819e-04 2.141986417187e-04 2.225177127923e-04 2.192104762845e-04 -1.301696559919e-03 -1.281898101776e-03 -1.112140355603e-03 -1.178476468861e-03 -1.750466942489e-03 -1.789560286108e-03 -1.804514529863e-03 -1.757388835868e-03 -7.315933772956e-04 -2.694005750330e-04 -5.182063237066e-04 4.716089387838e-05 -1.730694572247e-03 -1.756546889682e-03 -4.821398985419e-04 -6.801029396122e-04 -1.511686522229e-03 -1.473398068643e-03 -1.231789071019e-03 -1.310671523378e-03 -2.195520841226e-03 -2.208173774408e-03 1.058093338241e-04 -1.017661570098e-04 -2.246533020309e-03 -2.202270008322e-03 -2.144103763664e-03 -2.191387753854e-03 1.354330620334e-04 -6.052783409216e-05 -3.989163431018e-04 -5.613225933032e-04 -1.482750632294e-03 -1.422607640488e-03 -8.692740515958e-04 -7.132586094527e-04 -4.740085063153e-04 -7.283325544027e-04 -1.004439933591e-03 -1.034071737219e-03 -1.432058362534e-03 -1.499381343459e-03 -1.125030963826e-03 -1.086973363550e-03 -4.583289332016e-04 -6.911143081600e-05 -1.935117535501e-03 -1.952184881200e-03 -3.520604239004e-04 -5.036494963635e-04 -1.594518875838e-03 -1.619444257439e-03 -1.241076091107e-03 -1.169611483115e-03 -1.885135047237e-03 -1.892271661752e-03 -7.846165898451e-04 -8.760070066383e-04 -1.671260611450e-03 -1.614520668300e-03 -1.578923212386e-03 -1.603774927544e-03 -1.152726938147e-03 -1.042282792847e-03 -1.454181533326e-03 -1.489793354951e-03 -2.047404680655e-04 -5.177915288800e-04 -1.073029670752e-03 -9.465721489422e-04 -1.579078975640e-03 -1.535137305899e-03 -2.710583020491e-03 -2.730489038115e-03 1.269823188806e-04 -2.259604986407e-05 -1.350251400022e-03 -1.396106173227e-03 5.938964890656e-05 -4.197263306693e-04 -2.930145354095e-03 -2.926972026976e-03 3.196690535021e-04 1.776257640720e-04 -9.076498125315e-04 -8.259549840772e-04 -4.030773135283e-04 -1.120152087011e-04 -1.791153186240e-03 -1.824217909764e-03 -1.767371479596e-03 -1.795660336875e-03 -1.234726348778e-03 -1.283168249255e-03 -7.656882909324e-04 -9.360001920770e-04 -5.975802877114e-04 -4.871118939535e-04 -2.533511910913e-03 -2.507172213466e-03 1.492367363634e-04 6.263227250975e-06 -6.841787619089e-04 -4.101145986661e-04 -1.544349276159e-03 -1.515688959474e-03 -1.875167937086e-03 -1.821844143323e-03 -1.559927132650e-03 -1.617732568297e-03 -9.807906568832e-05 -3.541364859735e-04 -2.383250266073e-03 -2.396224196165e-03 -9.665781873447e-04 -1.095484380376e-03 -1.059732886800e-03 -8.300696856492e-04 -1.011993235412e-03 -7.678662208498e-04 -1.290695951417e-03 -1.267948785433e-03 -4.069585625664e-04 -1.826955354026e-04 -1.282767496542e-04 -5.263545036731e-04 -1.958237481108e-03 -2.001591840670e-03 -1.299495438967e-03 -1.222625900145e-03 -9.626387405968e-04 -8.785781662217e-04 -1.554655606222e-03 -1.487866413085e-03 -1.407734970151e-03 -1.372575261424e-03 -1.401857300586e-03 -1.368987489102e-03 -2.033551415797e-03 -2.006993865653e-03 1.274880325922e-04 -1.196113775636e-04 -1.632200439724e-03 -1.645800710193e-03 -1.571986517226e-03 -1.626164037298e-03 -8.958244268041e-04 -7.130918575872e-04 -7.804880917535e-04 -9.232883637884e-04 -2.026710481823e-03 -1.979957053893e-03 -8.026265921543e-04 -9.430337976631e-04 -6.483109794201e-04 -3.556898583134e-04 -2.084957457844e-03 -2.086455066834e-03 -2.783678888528e-04 -1.662943886994e-04 -1.648900058368e-03 -1.635842258355e-03 -1.426321944817e-03 -1.462503218596e-03 3.993743707926e-05 -3.616642134286e-04 -1.435686326392e-04 -3.387326306932e-04 -8.788232331427e-04 -9.681962955467e-04 -1.780515089381e-04 -5.650800258933e-05 -2.803361390054e-03 -2.815184003835e-03 -1.121385200450e-03 -1.203375662453e-03 -4.881426310275e-04 -7.058145444377e-04 -1.067051839791e-03 -9.620145767761e-04 -1.045467525271e-03 -1.082942942522e-03 -1.309534164627e-03 -1.390522175261e-03 -3.000682167087e-03 -2.991141748577e-03 3.332692337656e-04 2.017617079201e-04 -8.282290632276e-04 -8.281385311519e-04 -1.458723910342e-03 -1.528706620786e-03 -9.502805318339e-04 -8.295452596782e-04 -8.964170610917e-04 -8.332039964906e-04 -4.245275797210e-04 8.505511293361e-05 -1.458333055510e-03 -1.378700315872e-03 -1.513151678108e-03 -1.560755280517e-03 -4.589462714536e-04 -6.960247746523e-04 -1.556434072957e-03 -1.550995529696e-03 -1.565892964861e-03 -1.533379419023e-03 -1.897421651563e-03 -1.897813381837e-03 -1.672402150503e-03 -1.624195556051e-03 4.697119901197e-05 -2.256784735838e-04 -7.715904902244e-04 -5.952899486314e-04 -1.335604079357e-03 -1.354840768366e-03 -1.887491754892e-03 -1.880881334250e-03 -5.236541212305e-04 -1.020382257766e-04 -1.889917409258e-03 -1.941425453152e-03 -2.805054065763e-04 -9.091060418113e-05 -5.834018989699e-04 -3.032559171026e-04 -3.294322480800e-03 -3.294457560076e-03 -9.823402759223e-04 -1.032692536009e-03 3.224455759232e-04 1.971890614550e-04 -1.520182834156e-05 -3.874153055269e-04 -2.354070034019e-03 -2.333124737937e-03 -1.183402662540e-03 -1.096835509883e-03 -2.219796282003e-03 -2.259748880002e-03 -1.646724035423e-03 -1.696155648596e-03 2.287152598233e-04 3.902529016297e-05 -9.682441811089e-04 -8.106517064049e-04 -1.269615744680e-03 -1.181418484290e-03 -7.357173163709e-04 -5.788862857024e-04 -1.605444250899e-03 -1.607111077939e-03 -1.131019845037e-03 -1.212499498308e-03 -1.739005061867e-03 -1.690810986415e-03 -1.970174871295e-03 -2.007088502233e-03 -2.374261292037e-04 -5.911165801208e-04 -1.260972792413e-03 -1.172135964232e-03 -8.076244059975e-04 -8.259893485871e-04 -1.712524713494e-03 -1.713515083079e-03 -1.559719627558e-03 -1.581057347425e-03 -1.746860137271e-03 -1.753202770575e-03 -1.688531510937e-03 -1.732901992836e-03 -1.403793558561e-03 -1.448939004225e-03 -1.597090370718e-03 -1.584919832306e-03 -1.210413805605e-03 -1.212895713090e-03 1.694377462064e-05 -3.276166761254e-04 -3.293080475643e-03 -3.286549343550e-03 -9.593182958173e-04 -9.554240304791e-04 -6.414555831807e-04 -7.436803155571e-04 -1.541428785262e-03 -1.479974656101e-03 -2.024931488015e-03 -1.977947407014e-03 -3.897657552388e-04 -4.753264104980e-04 -7.026405808746e-04 -8.336283274435e-04 1.797168447187e-04 6.517896294212e-05 -2.435128613995e-03 -2.418500271551e-03 1.457176818219e-05 1.115319216189e-04 5.461927236616e-05 -1.841260521709e-04 -2.204164350475e-03 -2.170210827939e-03 -7.660862461045e-04 -9.343263017055e-04 -1.565975226187e-03 -1.512546877438e-03 -1.096552442433e-04 -2.710426955952e-04 4.347659677968e-05 -4.591766584302e-04 -2.525801966921e-03 -2.533074885038e-03 -1.858560934538e-03 -1.831593151230e-03 -3.913341113067e-04 -5.792097593092e-04 2.093141794651e-04 3.886510922700e-05 -1.159571608030e-03 -1.233675769970e-03 -1.382663205157e-03 -1.358625399870e-03 -1.778169301583e-03 -1.727071605924e-03 -1.683225757250e-03 -1.695710095509e-03 -3.575316134669e-04 -6.385688634370e-04 -1.430553701577e-03 -1.427558767853e-03 -1.265062632946e-03 -1.206710668822e-03 -3.106666920561e-04 -5.528238419845e-04 -3.681237299989e-04 -2.959067473599e-04 -2.761799483382e-04 -1.184166551004e-04 -1.794707453871e-03 -1.841465204148e-03 -1.324976734664e-03 -1.271382689461e-03 -2.549955134296e-05 -3.400572900887e-04 -9.929682404929e-04 -1.091074759893e-03 -2.488599360642e-03 -2.522986934648e-03 -3.664426454970e-03 -3.659557070983e-03 3.720763321701e-04 2.497938174670e-04 -9.457300643796e-04 -8.500500940592e-04 -5.324462200893e-04 -2.790713141502e-04 -2.371166488215e-03 -2.406757359267e-03 -1.384595642516e-03 -1.442416286921e-03 -2.300602835248e-03 -2.317569924618e-03 -9.372629390314e-04 -1.057683178368e-03 -1.493536517848e-04 -1.607709181107e-05 -4.154388831065e-04 1.333394380139e-04 -1.553499802739e-03 -1.524382994646e-03 -6.034810049438e-04 -7.999063849993e-04 -1.401532072406e-03 -1.478285548022e-03 -1.941768983514e-03 -1.964562484919e-03 -1.859245984832e-03 -1.812131056835e-03 -9.261382720954e-04 -8.371403796288e-04 -2.981521466138e-03 -2.989368015173e-03 -2.527710704465e-04 -1.206397360696e-05 2.842548375292e-04 1.644876392014e-04 -1.821215581795e-03 -1.824795505717e-03 -6.091592984574e-04 -4.900365182977e-04 -2.747479623716e-03 -2.735645269469e-03 -9.808793847907e-05 -4.698717277449e-04 -1.631633739933e-03 -1.687886127507e-03 -5.565417097477e-04 -1.994608074769e-04 -1.595433127733e-03 -1.604862846602e-03 -1.642722472902e-03 -1.622436896589e-03 -1.153050401975e-04 -3.520365330033e-05 -1.134853789028e-03 -1.167763707459e-03 -1.031401288606e-03 -1.145516776719e-03 -7.327382563984e-04 -4.966798966514e-04 -8.129621129711e-04 -6.043205132451e-04 -6.545739162898e-04 -8.484489394817e-04 -2.685561566160e-03 -2.665680842591e-03 -1.097429525492e-03 -9.980473591738e-04 -1.165102856635e-03 -1.124384581818e-03 2.984968008273e-04 1.421286027340e-04 -1.524570031742e-03 -1.554179091873e-03 -4.520001220805e-04 -3.161864736658e-04 -1.626641003869e-03 -1.568472362604e-03 -9.677612239050e-04 -9.409832403492e-04 -1.261844114346e-03 -1.277127256621e-03 -2.215714786571e-03 -2.202675629641e-03 -1.009310327898e-03 -9.629366386497e-04 -4.064037356522e-04 -6.939069039825e-05 -7.455250791890e-04 -9.077722556729e-04 -5.142090110477e-04 -7.504941858465e-05 -8.449747061303e-04 -7.884239801835e-04 -2.107315135516e-03 -2.137269479190e-03 -1.199572212409e-03 -1.283871006730e-03 -7.982133957545e-04 -9.090343621093e-04 -2.561565320533e-03 -2.528774771636e-03 -1.511629879916e-03 -1.437470129663e-03 -8.431021820935e-04 -6.929818698432e-04 2.273292464266e-04 7.036061412567e-05 -4.813734388578e-04 -2.914160745830e-04 -1.663222539556e-03 -1.591794731466e-03 -1.695770621814e-03 -1.636237282396e-03 -1.522766291342e-03 -1.585305218148e-03 -1.209161214951e-03 -1.297571225644e-03 -1.057376129750e-03 -1.018520559198e-03 -3.578155707738e-03 -3.594674250305e-03 3.748171810702e-04 2.530054649849e-04 -1.328895028375e-03 -1.344571343614e-03 -2.047904305967e-03 -2.097424010826e-03 3.485094826196e-05 -3.348095922461e-04 -4.543158313086e-04 7.123944341881e-05 -1.690639609824e-03 -1.659116621424e-03 -1.157105362528e-03 -1.146843320296e-03 -1.530327887623e-03 -1.571142882445e-03 -1.606675373991e-03 -1.583646909567e-03 -6.957874360058e-04 -5.834510830666e-04 -5.329138192751e-04 -5.807067672605e-04 -5.488497898496e-04 -5.022700569328e-04 -1.454919364187e-03 -1.498791319564e-03 -9.877028383910e-04 -1.067675203546e-03 -1.253244939795e-03 -1.195203360107e-03 -9.821465000494e-04 -8.752535435475e-04 -1.040010099540e-03 -9.068193139118e-04 -1.586684595360e-03 -1.565140544473e-03 -1.867309825103e-03 -1.848093262299e-03 -1.158867438284e-03 -1.187507710294e-03 -9.427308736282e-04 -1.074043626224e-03 -3.992629169487e-04 7.530918533576e-05 -9.461630918860e-04 -7.951241276671e-04 -1.468983375017e-03 -1.432224706107e-03 -2.607834854787e-04 -4.794063396015e-04 -5.734727039693e-04 -7.935034290478e-04 7.974951039328e-05 -2.076196238039e-04 -1.227092365768e-03 -1.300246512748e-03 -1.404807255256e-03 -1.317138331234e-03 -9.832982729565e-04 -1.091764454851e-03 -1.847774308395e-03 -1.802917415497e-03 -8.675409717483e-04 -6.801252467522e-04 1.285802533881e-04 4.178940279372e-05 -1.764452116931e-03 -1.710013074610e-03 -7.028361532451e-04 -4.378137523129e-04 -3.352121923579e-03 -3.326401270052e-03 -1.643536155074e-03 -1.609291285589e-03 7.210549326535e-05 -2.025280750609e-04 -2.122439901867e-03 -2.072581225326e-03 -2.151527753867e-03 -2.140854512058e-03 -1.421273345612e-04 -4.312319057098e-04 -7.139886267746e-04 -5.811135332556e-04 -6.287249624640e-04 -4.252808556444e-04 -1.616554420119e-03 -1.605443049407e-03 -2.181409530909e-03 -2.146230519001e-03 -1.291432017452e-03 -1.336307077389e-03 -1.540344979711e-03 -1.475994469324e-03 -9.996690746091e-04 -1.069921080348e-03 -2.072984874140e-03 -2.045887893588e-03 -1.196990147138e-04 -4.868579810951e-05 1.597491555021e-04 -5.967091539696e-05 1.520932201777e-05 -1.957390564411e-04 -1.474132375462e-03 -1.535894986352e-03 -2.410161737520e-03 -2.435155258202e-03 -2.869159336438e-04 -6.119271114318e-04 1.652027981470e-04 -4.809685162718e-05 -1.421330662703e-03 -1.349407234126e-03 -1.480794870213e-03 -1.535734056387e-03 -9.514005967858e-05 8.183826170261e-05 -7.835897770175e-04 -8.991124557835e-04 -1.858961196534e-03 -1.910050012728e-03 -1.290250994296e-03 -1.198446947111e-03 -4.101872588857e-04 2.739072903752e-05 -1.594080940542e-03 -1.596861293867e-03 -1.693062015682e-03 -1.721578859158e-03 -1.413924266407e-03 -1.492308879108e-03 -2.048321725259e-03 -2.059268605361e-03 -5.130094653417e-04 -1.765282724106e-04 -1.643417842676e-03 -1.594458975799e-03 -7.231507786679e-04 -6.873234511837e-04 -5.165418845336e-04 -6.784898306646e-04 -3.848237606856e-04 -6.426843249923e-04 -1.115471599304e-03 -9.917136789957e-04 -1.991964063799e-03 -2.039471044566e-03 -1.512193388715e-03 -1.509553639744e-03 -5.669450432463e-04 -1.956621046564e-04 5.717170939674e-05 -1.207775094336e-04 -2.319825946649e-03 -2.277225185696e-03 -7.482309052541e-04 -5.346219045384e-04 -1.287950313004e-03 -1.215837446385e-03 -1.657119104689e-03 -1.710036117560e-03 -6.915705390761e-04 -7.266580257448e-04 -1.342723441365e-03 -1.428672896746e-03 -1.582341006545e-03 -1.525190439384e-03 -1.446349221490e-03 -1.455403021327e-03 -1.163357782955e-03 -1.069124847055e-03 -7.660148879946e-04 -8.439588817351e-04 -8.863759019521e-04 -9.757457108435e-04 -1.214213485375e-03 -1.158539966477e-03 -3.797231395023e-04 -1.223941574953e-04 -4.604473036181e-04 -5.063710081907e-06 -1.517232225452e-03 -1.576559378810e-03 -1.647733409233e-03 -1.659637977714e-03 -1.088599732984e-03 -1.143798262233e-03 -2.844224498081e-03 -2.852381118642e-03 -1.369299526257e-03 -1.305809935471e-03 -1.090616618060e-03 -1.015895394340e-03 -2.407620087539e-05 -4.615912469404e-04 2.505953065047e-04 1.056874841305e-04 -2.125108376831e-03 -2.155322833087e-03 -9.039798805451e-04 -9.066620280411e-04 -3.339804793791e-04 -6.241629552553e-04 -4.272847700049e-04 -6.922512352027e-04 -1.787051107235e-03 -1.833050292697e-03 -1.848078665278e-03 -1.884401987597e-03 -1.363794656939e-03 -1.293624742707e-03 -5.836314377829e-04 -6.660192058806e-04 -1.818792138090e-03 -1.807796643676e-03 -1.150094649921e-03 -1.208571603481e-03 -8.055425378405e-04 -8.518583101186e-04 -1.441989564700e-03 -1.487222376801e-03 -1.366715991390e-03 -1.438301900561e-03 -2.855080802911e-03 -2.887748593731e-03 -1.629747978140e-03 -1.593925003673e-03 2.512024257476e-04 1.497179217515e-04 -1.487245890318e-03 -1.447601393016e-03 -3.494634295970e-04 -2.409636096110e-04 -1.997460760541e-03 -1.961968188012e-03 -6.435110877130e-04 -7.958800381301e-04 -1.719080818560e-05 -2.284246981701e-04 -2.892632442465e-04 -4.630942492466e-04 -6.122965161836e-04 -2.795909214002e-04 -2.562583769917e-03 -2.553800048219e-03 -1.464743492258e-03 -1.534010298408e-03 -1.607709279722e-03 -1.651756000521e-03 -1.736486049040e-03 -1.726851687347e-03 -1.497860169937e-03 -1.543525883308e-03 -8.809734299040e-04 -9.902014813661e-04 2.600606968652e-04 9.118302827809e-05 -1.582386107834e-03 -1.610541224711e-03 -1.114493299127e-03 -1.210777736274e-03 -1.738750528033e-03 -1.721373696619e-03 -1.503212581915e-03 -1.431231319466e-03 -3.172871855982e-03 -3.169177674339e-03 -6.008030755266e-04 -7.722703438238e-04 -9.397092420815e-04 -7.847236356234e-04 -1.355288659439e-03 -1.326446088364e-03 -1.012207689198e-03 -8.633645120974e-04 3.589985285296e-04 2.285503382380e-04 -1.211652324276e-03 -1.183684654726e-03 -1.423577962035e-03 -1.377164634285e-03 -1.602772535144e-03 -1.542720103316e-03 -5.669642287906e-04 -7.698318494962e-04 -1.969959747719e-03 -1.918340956616e-03 -2.098652877488e-04 -5.497487629740e-04 -2.543659658546e-03 -2.573950585806e-03 -4.763396994350e-04 -6.618918284928e-04 2.943158447343e-04 1.845825703981e-04 -1.911189710597e-03 -1.937239675803e-03 -1.556482172828e-03 -1.575576256066e-03 -7.806108774847e-05 5.721492801790e-05 -1.178822838068e-03 -1.191032510198e-03 -1.499037111646e-03 -1.544796919237e-03 -3.435019301220e-03 -3.407954600547e-03 -9.234051157333e-04 -9.682866619335e-04 -3.683484000008e-03 -3.670573052637e-03 1.612322218557e-04 -4.201244811525e-04 3.501120720792e-04 2.326086142972e-04 -8.248825306089e-04 -6.899603712633e-04 -2.991541980239e-04 -5.713016159489e-04 -8.238872575253e-04 -6.400555685085e-04 -1.401381367117e-03 -1.353830613657e-03 -1.664594581827e-03 -1.647942798347e-03 -9.607856872178e-05 -3.218510743785e-04 -2.854310562222e-03 -2.870096447934e-03 -1.701995432162e-03 -1.648026146041e-03 4.746708458178e-05 -2.945966746908e-04 3.837251739076e-05 -3.822658034631e-04 -2.030814805668e-03 -2.034093294204e-03 -1.735568035972e-03 -1.730351731484e-03 -1.457811282294e-03 -1.405669749830e-03 -1.539622639503e-03 -1.529148924952e-03 8.588850852597e-05 -1.536921127611e-04 -7.879701690579e-04 -7.588814227855e-04 -1.072892649985e-03 -9.560847476648e-04 -8.946071986221e-04 -9.446221373743e-04 -7.283525482493e-06 -2.853699855203e-04 -1.794569000943e-03 -1.805269993404e-03 -1.305359412848e-03 -1.370617832857e-03 -1.266848061541e-03 -1.341799155926e-03 -4.840288349124e-04 -1.851342195672e-04 -1.551368523932e-03 -1.590038589768e-03 -1.274191235587e-03 -1.313061277979e-03 -9.106325013076e-04 -8.652666986381e-04 -3.713295558316e-05 -3.104589846750e-04 -6.247108623886e-04 -8.264916624517e-04 -8.102017735289e-05 -4.148886841936e-04 -1.472273269188e-03 -1.390788054069e-03 -2.089166121132e-03 -2.072918809685e-03 -2.149972630870e-04 -1.682414419469e-04 -9.953915645038e-04 -8.861433927162e-04 -1.735293920777e-03 -1.692316182893e-03 -2.316517393655e-04 -3.679732095946e-04 -7.863855455159e-04 -5.622747916045e-04 -1.074067582535e-03 -1.070130314130e-03 -1.191858966320e-03 -1.124238527269e-03 -8.811537778705e-04 -9.840551082405e-04 -1.114494903444e-03 -1.158401905455e-03 -1.886303487732e-03 -1.905729257088e-03 -1.182921756224e-03 -1.118869356087e-03 8.411083831988e-06 -3.338453705687e-04 -7.772435593961e-04 -9.394395399416e-04 -6.887145103401e-06 -3.909328655750e-04 -1.914019939815e-03 -1.879589538654e-03 -1.708490180256e-03 -1.726499238041e-03 -2.345305709515e-03 -2.349229316892e-03 -1.112903371858e-03 -1.209932114000e-03 -6.513329152085e-06 -4.221320703352e-04 -7.491970329312e-04 -8.461229605008e-04 -6.033578372303e-04 -3.018764385146e-04 -1.247293714127e-03 -1.211517057790e-03 -1.613487712076e-03 -1.591932703357e-03 1.999342301661e-04 8.558458583206e-06 -2.749765787569e-03 -2.766558549577e-03 -1.717342649214e-03 -1.732689940248e-03 -3.358236595873e-05 -5.000581772696e-04 -6.448007131027e-04 -3.986958082387e-04 -1.394057432144e-03 -1.406574649943e-03 -1.917331115842e-03 -1.875777875301e-03 2.542727985913e-04 1.171832182801e-04 -2.571324023564e-03 -2.586825181699e-03 -4.051974129467e-04 -2.293606144806e-04 -2.389084343339e-03 -2.356621140207e-03 -1.711364785390e-03 -1.762981263573e-03 1.396138706603e-04 -4.250477657331e-04 2.188611115340e-04 3.532937724878e-05 -1.838586404386e-03 -1.866207437316e-03 2.295493098450e-04 9.843349722474e-05 -1.420154616405e-03 -1.410314831257e-03 -3.102519686665e-03 -3.096798154993e-03 -2.233667905176e-03 -2.278634255860e-03 -1.728609818149e-03 -1.770107868606e-03 -1.048903956098e-03 -1.054901206972e-03 -6.629166650384e-04 -4.860209171978e-04 -1.158688204067e-03 -1.063337950708e-03 3.450972249691e-04 2.303893413517e-04 -1.617970539197e-03 -1.568348590212e-03 -1.222747336053e-03 -1.123072420415e-03 -1.852456932101e-03 -1.839270030808e-03 -3.887090345727e-03 -3.880978447944e-03 -1.720336187332e-03 -1.685202569693e-03 -7.454733955943e-04 -8.820845109939e-04 -1.171780337347e-03 -1.230770020752e-03 -3.142035966616e-03 -3.108010430390e-03 -2.619578082121e-03 -2.617527883897e-03 -1.310725821884e-03 -1.350044858442e-03 3.968943461665e-05 -2.712098821583e-04 1.564535415527e-04 3.595359317987e-05 -1.920991064761e-04 -5.578003408697e-04 -2.085130844576e-03 -2.127468999472e-03 -1.985038978872e-03 -1.974232895954e-03 -1.491324988276e-03 -1.512821939292e-03 -1.232240741463e-03 -1.276814065650e-03 -1.534593316839e-05 -3.209723048683e-04 -1.078003177812e-03 -1.003695879360e-03 -6.418715926536e-04 -4.368148537190e-04 -7.274260723443e-04 -6.932275212925e-04 -1.800351923096e-03 -1.795190889155e-03 -1.085818011222e-03 -1.188091056090e-03 -1.531225688814e-03 -1.540345867121e-03 -7.575692218277e-04 -7.341105653156e-04 1.061819490612e-04 -1.494218512639e-04 -8.684478168654e-04 -7.403381535216e-04 -2.141287126396e-03 -2.095937397425e-03 -1.215071237108e-03 -1.287624170337e-03 -1.880554265047e-03 -1.923909551590e-03 -1.274643189605e-03 -1.364574448906e-03 -1.488740062893e-03 -1.506319559057e-03 -1.810319558770e-03 -1.759036093671e-03 -5.344352356270e-04 -5.270955783170e-04 -3.108669708015e-04 -3.236353864912e-04 -4.873886619765e-04 -4.275527344163e-04 -3.537063275943e-04 -4.927222324072e-04 -4.256935472118e-04 -3.749680865033e-04 -4.853999081858e-04 -5.492450086938e-04 -3.378823628760e-04 -2.935585568231e-04 -5.070402537908e-04 -3.534484521282e-04 -4.253321753866e-04 -2.997078197941e-04 -3.613082791455e-04 -4.130503311258e-04 -4.339044467774e-04 -5.125483704013e-04 -2.641846914180e-04 -3.819754640759e-04 -4.600596137812e-04 -5.694947192695e-04 -4.480777849238e-04 -3.535250240258e-04 -5.891996473223e-04 -4.873162747434e-04 -4.906937556844e-04 -5.964142635468e-04 -4.805141246278e-04 -5.824225532351e-04 -5.983415212648e-04 -4.738854785932e-04 -3.527540422951e-04 -2.548391455408e-04 -2.410127854976e-04 -3.718661995138e-04 -4.252818588482e-04 -4.079689431985e-04 -5.642274399027e-04 -2.829773298514e-04 -4.953087706236e-04 -5.660521465020e-04 -4.298158560353e-04 -3.566965695425e-04 -4.976080187598e-04 -3.601296118712e-04 -5.346899974671e-04 -5.369897615369e-04 
        </DataArray>
        <DataArray type="Float64" Name="STRAIN_XY" format="ascii">
          -2.904056131094e-06 4.861827674069e-06 1.047368206099e-06 -4.403360720099e-10 9.193905250722e-05 -5.504463472715e-06 -5.592227306585e-06 5.468884086169e-06 8.733313189130e-05 -1.208826356738e-05 3.805097907301e-07 1.537620375259e-07 2.805406785207e-06 1.077603785856e-05 1.311002990261e-05 9.004384059431e-06 1.000297041919e-05 1.168202896477e-05 5.832552493308e-06 8.755189324801e-07 -1.132174348242e-06 -8.402053937031e-06 -7.726358803054e-06 -1.036332842524e-05 -9.323364893311e-06 -8.397982408823e-06 -7.230278127228e-06 -6.180322045362e-06 2.416971313614e-07 -1.138504948149e-06 -1.349778512236e-06 -4.963617739025e-06 -4.913368497351e-06 -4.296031134329e-06 -3.546674508988e-06 -2.466059881032e-06 4.130964555364e-07 2.196686055742e-07 1.423716205469e-06 4.682257142677e-07 -6.458563876687e-07 2.335316351265e-06 1.901468796321e-06 6.109521675124e-06 6.488548356759e-06 4.972109351396e-06 7.656766489138e-06 1.830826801617e-06 5.269612388039e-06 -3.260926597365e-07 2.951406077716e-06 4.441836116675e-06 1.490204699014e-05 1.089560918980e-05 2.016718962067e-05 1.607990360474e-05 1.877751794509e-05 1.527773141703e-05 7.494392287881e-06 4.391333216873e-06 -5.999868232285e-06 -8.555290555649e-06 -1.927347628537e-05 -1.924063271975e-05 -1.451949862205e-05 -1.480709986840e-05 -1.038372454651e-05 -8.524653423317e-06 -2.045175891655e-06 -1.171437494806e-06 1.705906108629e-06 -6.644495525229e-06 -6.301916166241e-06 -8.498192126840e-06 -8.560469317735e-06 -6.132107001712e-06 -5.279085521176e-06 -4.206936812041e-06 -1.906053040743e-06 -1.374214199649e-06 -1.126953415913e-06 -1.348018901927e-06 -2.940220466526e-06 1.307464685452e-09 6.188205194095e-07 3.927948914672e-06 3.810988878779e-06 3.845966199744e-06 3.328149129489e-06 1.123851446541e-06 -1.235663958128e-04 -2.496213611523e-04 -3.624647282828e-04 -4.572448782744e-04 -5.180570911037e-04 -5.314513859196e-04 -4.926689784926e-04 -3.758164006298e-04 -2.069845570787e-04 -5.009650974071e-06 1.963167129242e-04 3.681131702236e-04 4.837616976287e-04 5.296502905867e-04 5.252533218328e-04 4.563538106917e-04 3.672702945501e-04 2.520752405081e-04 1.275924419011e-04 1.620675873757e-04 3.888502041383e-04 6.893615586406e-04 1.101663244349e-03 1.584700577366e-03 2.145887403977e-03 2.742925396633e-03 3.306094996500e-03 3.762184067843e-03 4.066114949705e-03 4.099999143826e-03 3.862755956743e-03 3.297697762919e-03 2.426954676035e-03 1.301990341635e-03 -1.127731432350e-03 -2.220869451949e-03 -3.105302036829e-03 -3.678853717121e-03 -3.930178710852e-03 -3.904582920837e-03 -3.673143085055e-03 -3.283928342969e-03 -2.801528411744e-03 -2.301942144524e-03 -1.802020272047e-03 -1.338091346463e-03 -9.362078270943e-04 -5.795589651207e-04 -2.812643982263e-04 2.434248706594e-04 5.407886633243e-04 8.771681073053e-04 1.280513319893e-03 1.725360457203e-03 2.222135157549e-03 2.744284575095e-03 3.237274832800e-03 3.641554471025e-03 3.914668365695e-03 3.947403104258e-03 3.729532831404e-03 3.202942310137e-03 2.374810270989e-03 1.285687456699e-03 -1.146333401213e-03 -2.270924797939e-03 -3.194391173218e-03 -3.806147009640e-03 -4.084020198896e-03 -4.057560112870e-03 -3.799516195922e-03 -3.356776506002e-03 -2.808035273971e-03 -2.234137613566e-03 -1.668240434370e-03 -1.159590976705e-03 -7.493662479129e-04 -4.198812008807e-04 -1.895312843768e-04 -7.709614741334e-04 -6.452655481739e-04 7.495793232115e-04 9.023638215579e-04 -3.891421267664e-04 -1.046145575246e-05 -2.536629528765e-04 1.748522311947e-04 -1.258489661923e-03 2.278370499128e-04 -1.143604521601e-03 1.978731335854e-04 8.714904517445e-04 8.060587345878e-04 1.321079389370e-03 1.396958387356e-03 -1.346070971379e-03 -1.326848747420e-03 1.689281525427e-03 1.682694102853e-03 -2.153533597274e-04 1.995704301586e-05 -6.534224538882e-04 -6.873400412765e-04 4.450300044004e-04 6.269079269282e-04 -8.636135668198e-04 -7.270355625352e-04 6.463678462964e-04 6.757185188566e-04 -1.643253465824e-03 -1.661474139044e-03 2.317680130175e-04 3.274978002876e-04 -8.461834470294e-04 -5.645078007450e-04 6.331515963897e-04 8.989223226999e-04 -4.627243874020e-04 -2.628274949816e-04 -2.523481431918e-04 -1.648591693450e-04 2.768115594751e-04 4.433272821158e-04 -5.502905442286e-04 -3.932588849959e-04 1.575250360665e-03 1.541410032017e-03 1.710941853177e-03 1.713798621140e-03 -8.626001565445e-05 4.244906828025e-05 -2.020453909279e-03 -2.056333017317e-03 -1.780989148823e-03 -1.761927584092e-03 3.898362801615e-04 6.945695013667e-04 1.865790970288e-04 3.057626840953e-04 -6.781597391460e-04 -5.930864006578e-04 -1.208162405379e-03 -1.107322047914e-03 2.141149811288e-03 2.111716323834e-03 6.728983918093e-04 8.271934190876e-04 -1.584551208280e-03 -1.553174968633e-03 -1.212574216094e-05 7.765612169073e-05 -7.207862281768e-04 -5.245987325958e-04 -1.080906159017e-03 -1.087303946582e-03 1.016285921550e-03 1.084941307744e-03 1.391804558897e-04 2.392572649807e-04 3.052803729527e-05 2.331243368025e-04 -3.242933659044e-04 -3.259424246716e-04 2.225156305828e-03 2.277484794214e-03 -7.886000877580e-04 -6.910115984574e-04 -8.573465579041e-04 -7.838732681179e-04 -1.667496994076e-04 2.323741090066e-05 -4.106749220457e-04 -2.868507196304e-04 1.004377109738e-03 1.158820496173e-03 -1.997654278233e-03 -2.041090187899e-03 1.417841881267e-03 1.545139384290e-03 1.086192030729e-03 1.084838459215e-03 -9.129885028708e-04 -6.747932602247e-04 5.027129585633e-04 5.975768912062e-04 2.755735692136e-04 4.214940104128e-04 -1.708620268551e-04 -5.910610404070e-05 8.260240109858e-04 9.028638023470e-04 -2.065790126317e-03 -1.973956711943e-03 1.306008818299e-03 1.379275683794e-03 -7.235350778205e-04 -6.017638051704e-04 -5.103782835266e-04 -2.740188463793e-04 4.077373550912e-04 5.410176283294e-04 -1.154555453339e-03 -1.085471712194e-03 3.657476587980e-04 6.192397218477e-04 -3.519149093828e-04 -1.591144990241e-04 1.604510369372e-04 2.464226134516e-04 1.011098323814e-04 2.596624614379e-04 7.292136743513e-05 1.586955931036e-04 -9.984835260216e-04 -9.209931745386e-04 -2.476731465321e-03 -2.499536273048e-03 2.953146236430e-05 2.487959311218e-04 1.050396407190e-04 1.135781979018e-04 1.324891156681e-03 1.340704263783e-03 -3.694052019229e-04 -2.624799923267e-04 -1.097753838610e-03 -9.177211670817e-04 1.659066472525e-03 1.681753247890e-03 7.303990824437e-04 8.384151169905e-04 6.829786889965e-04 9.174350370614e-04 -7.149658902471e-04 -3.458545554524e-04 2.377001235893e-03 2.322292752645e-03 1.744926489501e-03 1.794258490050e-03 -6.193489665643e-05 8.967038874437e-05 -5.031533700726e-04 -3.983977489772e-04 -9.369512487199e-05 -1.245285320769e-04 1.235249250192e-03 1.281473099038e-03 -2.369979012718e-04 -9.158573946917e-05 -1.574341997221e-03 -1.611599276716e-03 -1.635985697726e-03 -1.494748795392e-03 -2.312405057418e-04 -1.386244349158e-04 3.187252737180e-04 7.050193315492e-04 -9.544798871715e-04 -7.725139154895e-04 4.995654321830e-04 7.028949265506e-04 -1.861232083364e-04 -1.210394270133e-04 1.045758851001e-03 1.207261803814e-03 4.301430279735e-04 4.232590140908e-04 1.847934141646e-04 4.766890410943e-04 -1.042383982839e-04 -4.307099452696e-05 -1.863196677818e-03 -1.874830879656e-03 -2.376149569320e-03 -2.427930760048e-03 -2.191181918497e-04 -1.096169879375e-04 8.944989927734e-05 1.472443317512e-04 -6.319211634878e-05 6.142789682546e-06 9.859976173000e-04 1.131731878270e-03 -3.736877742717e-05 4.093317077626e-05 -1.717980869889e-03 -1.731857945611e-03 -1.126521822896e-04 1.066208013850e-04 2.644219724178e-05 1.647742535126e-04 -4.144727754871e-04 -4.567756736547e-04 -1.510653613984e-03 -1.452510347375e-03 7.025169822956e-04 8.113685679861e-04 -2.450805916971e-03 -2.420559877360e-03 -5.742655281858e-04 -2.736067532787e-04 -5.908450952614e-04 -4.625276157199e-04 -1.247908055054e-03 -1.207247953681e-03 -9.671211351168e-04 -8.118416721612e-04 -3.588632660969e-04 -1.953464869028e-04 2.540469241916e-03 2.499753493442e-03 -5.736551638141e-04 -5.539842489297e-04 3.330303991281e-04 4.247968427898e-04 1.205402116087e-04 3.469840674552e-04 1.182503942238e-04 2.034581886298e-04 -5.423224644562e-04 -3.460410348412e-04 -1.902887101483e-04 -4.676842894653e-05 7.603841226607e-06 8.263968049473e-06 -1.366542446911e-03 -1.276715311582e-03 -1.324126422259e-03 -1.269190412480e-03 -6.601419826529e-04 -2.705501206532e-04 -9.615005619693e-04 -9.062343859141e-04 9.364647354315e-04 1.053991950056e-03 3.925340266737e-04 5.005689644639e-04 -1.092741072124e-03 -1.017464366189e-03 3.148886642413e-04 6.675635502838e-04 -1.650225940304e-03 -1.648472758260e-03 -4.309723277433e-04 -1.464579878252e-04 -9.161571548969e-05 8.909640762352e-05 2.578103836367e-03 2.580240563074e-03 -1.250556539233e-03 -1.221757440058e-03 -5.580769222271e-04 -4.576222173203e-04 1.182308937176e-03 1.222927972848e-03 7.401372208649e-04 8.118256310009e-04 -6.152428060170e-04 -4.619445359689e-04 -2.668734287126e-04 -3.198950786433e-04 -1.385768674003e-03 -1.248164810364e-03 2.831928017548e-04 5.204673734966e-04 2.160874361875e-04 5.934654457333e-04 1.159696126186e-05 6.479757931506e-05 2.245345412480e-04 4.083546337685e-04 2.130300870961e-03 2.066381383689e-03 1.870971844420e-03 1.861258980299e-03 -1.169550928488e-03 -1.116957310719e-03 2.809055936209e-03 2.708253689866e-03 1.317572573678e-03 1.401067114021e-03 5.904232797746e-04 6.333568445434e-04 1.331844934256e-03 1.417512531956e-03 1.195378739349e-03 1.304886880434e-03 2.756206722026e-04 3.772689960367e-04 1.430884160327e-03 1.446289039592e-03 1.516230775567e-04 3.780941866759e-04 -2.229739767267e-04 5.681599162465e-06 9.926787846938e-04 1.049814745676e-03 1.423943661883e-03 1.474755891184e-03 -6.084410246193e-04 -6.264542978092e-04 2.033133118465e-03 1.996923302187e-03 4.450726952456e-04 5.602243321051e-04 1.231916549466e-04 2.756826602852e-04 1.696235541731e-03 1.692812512166e-03 7.532443964831e-04 9.458228995864e-04 -7.711954851146e-04 -6.756640145528e-04 -9.653508707825e-04 -8.488136611527e-04 1.034122544849e-03 1.138512191740e-03 -2.047596928747e-03 -2.121668232035e-03 -1.482227125457e-03 -1.471112250698e-03 -2.746945483083e-04 -1.031093801092e-04 2.694210079062e-04 3.815474604894e-04 4.661703637065e-04 5.405677899998e-04 -1.503652505192e-04 -7.455220725781e-05 -8.941954642048e-04 -7.166561748914e-04 4.245413681323e-04 3.047855921926e-04 -2.213752967806e-04 -2.016118809815e-04 -2.084237604882e-03 -2.126538807218e-03 -1.075212480424e-03 -9.650591264833e-04 -1.313032385601e-03 -1.185951390992e-03 -3.515382613909e-04 -2.558621831149e-04 1.955543998650e-03 1.870869885938e-03 8.604328723747e-04 1.028782417745e-03 1.453684346596e-03 1.474852775113e-03 3.046407950734e-05 1.317181711851e-05 -1.966546962163e-05 3.885703849506e-05 5.429268738050e-04 8.442347238389e-04 -1.571435468035e-04 -9.334641872077e-05 -2.079181130215e-04 9.894721724352e-06 5.318741972412e-04 6.377916025064e-04 -7.343142854959e-04 -4.577057044144e-04 1.906041993563e-03 2.035429884381e-03 -8.019584526639e-04 -7.462952306701e-04 8.036809613414e-04 7.635332382429e-04 2.100830748920e-03 2.111796150775e-03 1.953238926872e-03 1.988131597875e-03 -2.452375365349e-03 -2.337551324141e-03 4.482795749049e-04 6.075186396873e-04 -2.761893092522e-04 -1.501229200981e-04 -7.172685301216e-04 -4.762830404074e-04 1.067658943731e-03 1.107443525459e-03 -1.983761891445e-03 -1.997473500767e-03 -1.650060014963e-03 -1.739778186900e-03 -4.681090481730e-04 -3.096212824652e-04 1.533598344739e-03 1.562242825880e-03 -1.087786737285e-03 -9.164224438190e-04 -9.460624825027e-04 -6.963432309036e-04 7.203681556607e-04 9.600429263236e-04 4.115711947571e-04 6.156965958457e-04 6.796316924625e-05 1.369993515038e-04 -7.682967442472e-04 -5.982225096729e-04 1.446611281503e-04 1.482642649793e-04 -3.967204263685e-05 1.914353517447e-05 -1.772842368349e-03 -1.790763380807e-03 7.532916320350e-05 1.899429161100e-04 -6.061344721075e-04 -3.569604574208e-04 5.946691691575e-04 7.292505634859e-04 -2.788544998334e-03 -2.707073040585e-03 2.011151154364e-04 3.942066977810e-04 -6.048214165534e-04 -4.979846106530e-04 1.415982847688e-03 1.481804265837e-03 5.233837391470e-04 1.737949478238e-04 9.374222721636e-05 3.350596238073e-04 -1.486495126798e-03 -1.416027070326e-03 1.245510328955e-03 1.301661714617e-03 1.469578663828e-04 3.793028994712e-05 8.421720279029e-04 1.012065163299e-03 4.282854411163e-05 9.364833326448e-05 -1.691354514512e-03 -1.669280104193e-03 6.766318341470e-04 6.886742892897e-04 -1.425510388116e-03 -1.378812031287e-03 -1.338744379430e-04 -1.269799555799e-04 2.620440110804e-05 2.120803233985e-08 -2.344692076466e-04 -1.328583592342e-04 -1.520399761785e-04 -9.524807124900e-05 -2.678702422645e-03 -2.702244969217e-03 1.223449276622e-03 1.337632805906e-03 1.648786597793e-04 1.495265302767e-04 -5.944214199448e-04 -4.723732516818e-04 -5.717962528865e-04 -4.063117088278e-04 1.214170771986e-04 1.506207709334e-04 -3.529299675575e-04 -1.185307704547e-04 -2.821242319477e-05 1.304305221810e-04 3.910306497361e-04 5.599517716280e-04 -4.997405656228e-04 -4.006271887441e-04 -2.990749631341e-03 -2.952583214218e-03 -5.528453719426e-04 -1.407082374864e-04 2.457287466760e-03 2.400838221313e-03 -2.391361698449e-03 -2.448391234012e-03 1.733905048765e-03 1.718338394162e-03 6.406187373655e-04 8.419990711042e-04 2.395348974750e-04 3.590253489472e-04 -8.445801962786e-04 -6.084945081293e-04 -1.094477603416e-03 -9.397303991449e-04 -3.880768470483e-05 6.582761319262e-05 -4.482641428229e-05 1.637158442594e-04 2.936691611536e-03 2.948177041685e-03 1.088190535127e-03 1.206362489530e-03 -2.027940049417e-05 -1.257929576580e-05 -9.745282850580e-04 -7.595179749324e-04 -1.152591235485e-03 -1.105468297498e-03 1.165514071105e-03 1.237855931939e-03 8.692406541101e-04 1.061929949459e-03 -4.946624850115e-05 -5.507337537684e-05 -2.693913705945e-04 -1.772504768837e-04 7.308925206654e-05 1.173469965071e-04 1.820790794621e-03 1.811201150136e-03 8.907958485722e-05 2.652587098053e-04 -1.242282607501e-03 -1.112925942606e-03 -1.388674005307e-03 -1.287647012545e-03 2.286981689742e-04 3.605823945501e-04 -8.327829839140e-04 -5.324112073820e-04 -2.088408072739e-03 -1.973480387005e-03 5.230173463999e-04 6.136686583192e-04 2.817730218859e-04 3.111099326355e-04 5.367529162186e-04 6.864023525823e-04 -4.814464914125e-05 1.863124273283e-04 7.337351720003e-04 8.389866026141e-04 -1.874994816896e-03 -1.889934548640e-03 -1.370761802388e-03 -1.295566315786e-03 -1.179290547366e-03 -1.147470487040e-03 1.932546168654e-04 4.037835407753e-04 8.735831331231e-04 9.704429058028e-04 1.615523274647e-04 2.555324800910e-04 -3.072686555308e-04 -1.609064051794e-04 3.219793189733e-03 3.127756751158e-03 1.689080360935e-03 1.787231282140e-03 -2.389109179909e-04 -2.535399234039e-04 8.714559045896e-04 9.164577503963e-04 -4.837080959147e-05 -7.338070382036e-06 -4.641784947736e-04 -2.454317823973e-04 5.274261167773e-04 7.892165513687e-04 3.024175062150e-04 3.198004577658e-04 1.692308762067e-04 2.519807315802e-04 -3.632759448429e-04 -2.634385638744e-04 -1.002727714182e-03 -9.747612684370e-04 -1.297974999313e-04 -2.961116481277e-05 -4.036102946408e-04 -2.449253023714e-04 7.251400595076e-05 1.175145764425e-04 -2.917736395137e-04 -1.956953623603e-04 -6.267929942497e-05 5.924991900857e-05 -7.738752962413e-04 -6.984354156905e-04 -6.244248992493e-05 -2.992490881019e-05 -2.009476177914e-03 -1.963785085267e-03 -7.560905994234e-04 -5.864418727624e-04 3.370706497547e-04 4.418995886372e-04 -4.758514046494e-04 -1.139085136493e-04 1.640731870154e-03 1.664494683398e-03 -2.176503716813e-04 -6.467087668299e-04 -1.409611380284e-03 -1.346507227004e-03 -8.275956296344e-04 -7.155386260039e-04 -8.555143438066e-04 -7.800376283108e-04 -6.020292301808e-04 -2.037813387437e-04 1.024138111101e-03 1.053569228113e-03 8.773880295639e-04 1.018865338929e-03 -7.780237773622e-04 -4.356930682504e-04 -1.132114645970e-03 -1.048059516541e-03 -3.986407725007e-04 -2.821977470337e-04 1.189056669251e-04 4.823507090203e-04 -8.692588209513e-05 -5.265890418468e-05 2.485034228805e-05 1.180821520384e-04 7.571012014173e-04 8.423406063475e-04 -1.857978480046e-03 -1.878029734046e-03 -2.846295028916e-04 -6.834030839029e-05 5.345998723000e-04 7.824630488190e-04 -2.279919478411e-03 -2.322691401475e-03 -9.227849475789e-04 -8.417408199749e-04 -4.340809763436e-04 -2.434901355679e-04 -1.161913660966e-04 -2.694429320005e-05 -9.277422968101e-05 6.362490792732e-05 -3.704057553632e-04 -2.251734087704e-04 -3.899929250071e-04 -1.851827552177e-04 -1.808895221763e-03 -1.830735609744e-03 1.510296241713e-04 2.841921584415e-04 2.773900736286e-04 4.571458994335e-04 -7.151214285251e-04 -7.183084558785e-04 -3.382960268829e-04 -1.206934153841e-04 -5.009672373033e-04 -2.434379852762e-04 2.262066337307e-04 6.481194238044e-04 4.403813512531e-04 7.785536199778e-04 -6.326433996523e-04 -5.299412903508e-04 -2.359016131792e-04 -4.179705081991e-05 -1.435106901535e-03 -1.412517826058e-03 -2.240761547435e-03 -2.182229307119e-03 1.319805596094e-03 1.348011985923e-03 2.294653401303e-03 2.252641066239e-03 2.735063316293e-04 5.820920734184e-04 1.413246054140e-03 1.425249340217e-03 -2.442461139571e-04 -1.629480628470e-04 2.701487889910e-03 2.818984276045e-03 -2.411678543508e-05 1.048268868797e-04 9.952945179068e-04 9.051976728745e-04 3.816331368780e-04 4.844637638225e-04 -1.827988048728e-03 -1.879675383522e-03 1.050895256390e-03 1.121823402844e-03 3.862019969775e-04 7.298789056738e-04 -9.321013519174e-04 -9.803290714566e-04 1.500834737993e-03 1.529970593089e-03 -7.319190032136e-04 -4.187045818893e-04 3.499127199429e-05 2.609492566548e-04 -1.767083653130e-04 -9.584811416433e-05 -5.054110245174e-04 -4.053457268905e-04 1.079990028981e-03 1.119977050136e-03 -2.853406807881e-05 5.939777758737e-06 -1.125516042285e-04 -4.233193115623e-05 -2.542295943268e-04 -2.623802998911e-04 3.207796196477e-03 3.275508985421e-03 -1.013731723318e-04 -5.887868528646e-05 -5.889791559252e-05 1.240186815939e-04 1.148168910012e-04 1.921734600284e-04 5.542679163660e-04 7.218555010990e-04 1.503807895216e-03 1.552850561926e-03 -1.503572521094e-03 -1.445029569597e-03 -8.759417274479e-04 -7.728214435822e-04 -1.236447511415e-03 -1.115993788650e-03 3.009565166719e-05 2.923782557144e-05 -3.087465142180e-03 -3.058555541224e-03 -2.039468495098e-03 -2.071205971106e-03 1.683864359031e-04 2.746986370947e-04 1.184234875660e-03 1.293794636693e-03 4.637786920421e-04 5.971305192186e-04 5.549423502519e-04 7.606960245186e-04 -2.919710118483e-03 -3.029877721860e-03 1.744663802551e-04 6.024094229823e-04 -8.044609196855e-04 -7.325472940391e-04 -3.097674030419e-03 -3.176708259120e-03 -5.698907363059e-05 3.739000471890e-05 -1.317732312794e-03 -1.334819082911e-03 5.047970560330e-04 6.666249339181e-04 3.379330017277e-05 -5.092945615572e-06 1.995915278146e-03 1.882742136320e-03 3.996474839360e-04 6.532582333538e-04 -9.926562639202e-04 -8.833502915995e-04 -3.999513415107e-05 -1.378666176646e-04 4.629880636492e-04 4.126565773437e-04 -7.330835951973e-04 -4.034801860610e-04 8.613459886934e-04 1.001258227181e-03 -1.388717797616e-03 -1.301177129557e-03 3.112816105791e-04 4.189064068827e-04 -2.325946195802e-03 -2.327972322434e-03 9.787765343465e-04 1.040889607272e-03 -1.138197340872e-03 -9.699938393333e-04 9.960322379078e-05 2.358062669359e-04 -4.563956407829e-05 -5.463472227023e-05 1.321117924784e-04 1.846464602009e-04 -1.289443682957e-04 1.015306975452e-04 -1.570940435386e-03 -1.564504067131e-03 -1.562590478338e-03 -1.563898177658e-03 -1.721085443838e-05 2.140858540587e-05 -4.682905074198e-04 -5.029874619268e-04 2.804622984054e-03 2.815078719850e-03 -1.737757490618e-03 -1.734154813375e-03 -3.737375248699e-04 -1.624101110133e-04 5.540623401198e-04 6.151989202484e-04 -1.259436268653e-04 7.580883766554e-05 -3.105435386781e-04 -2.148575438758e-04 1.430275541428e-03 1.452983914604e-03 -8.475368374554e-04 -7.181563401309e-04 -7.911988010121e-05 2.139632778820e-05 2.497378179835e-03 2.470171592496e-03 1.503977516298e-04 3.790025265732e-04 -6.365305296716e-04 -7.051800239259e-04 1.045229816958e-03 1.190434709378e-03 5.197122916639e-04 6.311079221708e-04 3.614426391571e-05 6.722521595302e-05 1.815171454222e-03 1.866877451578e-03 1.985204043648e-03 2.075800140238e-03 4.066607574360e-05 1.079834670001e-04 2.386745524024e-05 1.849883455783e-04 1.721990283778e-03 1.704645211611e-03 -1.019119019531e-03 -8.109961068314e-04 -5.865223731128e-04 -3.881530430897e-04 1.914336713145e-04 3.104574527095e-04 2.035905555597e-03 2.004190724833e-03 6.076005786405e-04 7.787429401712e-04 -1.363941760356e-03 -1.325644874705e-03 -8.952386593657e-04 -7.438411832331e-04 3.073902970345e-04 3.686109466389e-04 8.411469317603e-04 1.037248387273e-03 -2.932424174222e-04 -3.833257920430e-04 4.222366873196e-05 2.422365613658e-04 -1.204970145186e-04 5.818890136203e-05 1.585824641430e-04 -7.668264391567e-05 8.859450668776e-05 5.101253936689e-05 2.772732223166e-04 3.970799392672e-04 2.261105828667e-04 4.233198681784e-05 -8.801570615613e-04 -6.791932224431e-04 3.306518384631e-04 4.681904760652e-04 -1.430834251481e-03 -1.422775243067e-03 -3.554229305282e-04 -3.716460370321e-04 1.420031278060e-03 1.271177160843e-03 -9.997508969885e-04 -9.482654300412e-04 -1.220269055656e-04 -4.847602350958e-04 -1.106912770556e-03 -9.693971680653e-04 -6.424724867178e-04 -5.339685280294e-04 7.473738324827e-04 8.358881271490e-04 7.684358350427e-04 7.644838574195e-04 -1.804286188117e-03 -1.683964353177e-03 -1.469933176422e-03 -1.440268427596e-03 3.435258878835e-04 5.494835663411e-04 -2.691766491652e-04 -1.199443180432e-04 5.679871244870e-05 1.821596922240e-04 3.398542397333e-04 3.536675732022e-04 -1.049048917303e-03 -9.909713467844e-04 -9.228453905075e-04 -9.057891959777e-04 5.641511379612e-04 6.690216779760e-04 -6.196058032268e-04 -7.918107476540e-04 -7.283386771996e-04 -5.580287253754e-04 -1.993262765007e-04 -2.914360685508e-05 3.788455678465e-04 5.844722836578e-04 -1.554030291675e-03 -1.510146548141e-03 -1.058073744373e-03 -9.264252018932e-04 -5.058501974463e-04 -4.390111283084e-04 1.232574822183e-05 1.271361911959e-04 -1.483991014774e-03 -1.450655893529e-03 2.690662776636e-03 2.651442720057e-03 -4.212777771541e-04 -3.331094615104e-04 5.912951524922e-04 6.771532906014e-04 5.228165066212e-04 8.086317632226e-04 -3.554171879802e-04 -2.327620330213e-04 -2.602644769888e-03 -2.487431509381e-03 2.069261513936e-03 2.181934618342e-03 -4.635499731496e-04 -3.460773714795e-04 -2.590588513876e-04 -2.964290575309e-04 1.198675633991e-03 1.158969749415e-03 1.501207574475e-04 5.738851646286e-04 -1.078413699196e-03 -9.785071202153e-04 -6.283469386729e-05 1.624647283445e-04 -6.375721383315e-04 -5.426358905466e-04 7.673187174278e-04 8.903816674937e-04 -4.701163183988e-04 -5.380826076066e-04 -8.322121288260e-04 -6.345734549349e-04 -5.847135275662e-04 -1.341093482629e-04 -2.677181738526e-03 -2.703679567953e-03 -8.778830060342e-05 1.141041546295e-04 1.139368688137e-03 1.228121511877e-03 -2.311934735615e-05 2.100349308949e-05 8.201619664986e-05 3.904117670198e-04 -1.946694064208e-04 -2.116927710145e-04 9.331684074220e-06 6.341056313223e-05 8.575970901913e-04 9.718982366125e-04 1.049083602130e-03 1.133651490934e-03 -8.015396806526e-04 -7.074568805045e-04 -9.442614224375e-05 -5.955380210795e-05 9.352158120719e-04 9.965027274719e-04 3.529458102946e-04 4.753084894512e-04 -1.065778874366e-04 1.009949016402e-04 6.302120440169e-05 -1.741968065570e-04 -2.631088975484e-04 -3.322208537824e-04 2.737988133636e-04 2.738932711570e-04 3.398847034809e-04 -3.121536360178e-04 1.477901371757e-04 -2.272210445188e-04 -8.160034187282e-05 1.380357541941e-04 -3.975496928435e-04 2.466229524588e-04 2.401124978343e-04 -1.698394850892e-04 2.348935795717e-04 -2.080682515726e-04 4.217371831015e-04 4.111878445074e-04 -4.184209741229e-05 -3.194378416660e-04 -1.256795696692e-04 2.846685868474e-04 -4.298592074803e-04 -2.255451095206e-04 -8.164542278206e-05 -3.302738710600e-05 3.792507150525e-05 8.065166576388e-05 -8.106768949290e-05 1.826971178032e-04 -1.702664023112e-04 6.403318793206e-05 8.688356333794e-05 -8.998496196279e-05 3.103432771822e-05 -2.532324676049e-04 -1.292289610927e-04 3.831882750566e-04 -3.698364360629e-04 1.348205350628e-04 4.754564275701e-04 3.802272945092e-04 1.362301173404e-04 1.670878763437e-04 -4.676018561801e-04 -1.691321777331e-04 -4.295035041607e-05 4.299047573113e-05 
        </DataArray>
        <DataArray type="Float64" Name="STRAIN_ZZ" format="ascii">
          0.000000000000e+00 0.000000000000e+00 0.000000000000e+00 0.000000000000e+00 0.000000000000e+00 0.000000000000e+00 0.000000000000e+00 0.000000000000e+00 0.000000000000e+00 0.000000000000e+00 0.000000000000e+00 0.000000000000e+00 0.000000000000e+00 0.000000000000e+00 0.000000000000e+00 0.000000000000e+00 0.000000000000e+00 0.000000000000e+00 0.000000000000e+00 0.000000000000e+00 0.000000000000e+00 0.000000000000e+00 0.000000000000e+00 0.000000000000e+00 0.000000000000e+00 0.000000000000e+00 0.000000000000e+00 0.000000000000e+00 0.000000000000e+00 0.000000000000e+00 0.000000000000e+00 0.000000000000e+00 0.000000000000e+00 0.000000000000e+00 0.000000000000e+00 0.000000000000e+00 0.000000000000e+00 0.000000000000e+00 0.000000000000e+00 0.000000000000e+00 0.000000000000e+00 0.000000000000e+00 0.000000000000e+00 0.000000000000e+00 0.000000000000e+00 0.000000000000e+00 0.000000000000e+00 0.000000000000e+00 0.000000000000e+00 0.000000000000e+00 0.000000000000e+00 0.000000000000e+00 0.000000000000e+00 0.000000000000e+00 0.000000000000e+00 0.000000000000e+00 0.000000000000e+00 0.000000000000e+00 0.000000000000e+00 0.000000000000e+00 0.000000000000e+00 0.000000000000e+00 0.000000000000e+00 0.000000000000e+00 0.000000000000e+00 0.000000000000e+00 0.000000000000e+00 0.000000000000e+00 0.000000000000e+00 0.000000000000e+00 0.000000000000e+00 0.000000000000e+00 0.000000000000e+00 0.000000000000e+00 0.000000000000e+00 0.000000000000e+00 0.000000000000e+00 0.000000000000e+00 0.000000000000e+00 0.000000000000e+00 0.000000000000e+00 0.000000000000e+00 0.000000000000e+00 0.000000000000e+00 0.000000000000e+00 0.000000000000e+00 0.000000000000e+00 0.000000000000e+00 0.000000000000e+00 0.000000000000e+00 0.000000000000e+00 0.000000000000e+00 0.000000000000e+00 0.000000000000e+00 0.000000000000e+00 0.000000000000e+00 0.000000000000e+00 0.000000000000e+00 0.000000000000e+00 0.000000000000e+00 0.000000000000e+00 0.000000000000e+00 0.000000000000e+00 0.000000000000e+00 0.000000000000e+00 0.000000000000e+00 0.000000000000e+00 0.000000000000e+00 0.000000000000e+00 0.000000000000e+00 0.000000000000e+00 0.000000000000e+00 0.000000000000e+00 0.000000000000e+00 0.000000000000e+00 0.000000000000e+00 0.000000000000e+00 0.000000000000e+00 0.000000000000e+00 0.000000000000e+00 0.000000000000e+00 0.000000000000e+00 0.000000000000e+00 0.000000000000e+00 0.000000000000e+00 0.000000000000e+00 0.000000000000e+00 0.000000000000e+00 0.000000000000e+00 0.000000000000e+00 0.000000000000e+00 0.000000000000e+00 0.000000000000e+00 0.000000000000e+00 0.000000000000e+00 0.000000000000e+00 0.000000000000e+00 0.000000000000e+00 0.000000000000e+00 0.000000000000e+00 0.000000000000e+00 0.000000000000e+00 0.000000000000e+00 0.000000000000e+00 0.000000000000e+00 0.000000000000e+00 0.000000000000e+00 0.000000000000e+00 0.000000000000e+00 0.000000000000e+00 0.000000000000e+00 0.000000000000e+00 0.000000000000e+00 0.000000000000e+00 0.000000000000e+00 0.000000000000e+00 0.000000000000e+00 0.000000000000e+00 0.000000000000e+00 0.000000000000e+00 0.000000000000e+00 0.000000000000e+00 0.000000000000e+00 0.000000000000e+00 0.000000000000e+00 0.000000000000e+00 0.000000000000e+00 0.000000000000e+00 0.000000000000e+00 0.000000000000e+00 0.000000000000e+00 0.000000000000e+00 0.000000000000e+00 0.000000000000e+00 0.000000000000e+00 0.000000000000e+00 0.000000000000e+00 0.000000000000e+00 0.000000000000e+00 0.000000000000e+00 0.000000000000e+00 0.000000000000e+00 0.000000000000e+00 0.000000000000e+00 0.000000000000e+00 0.000000000000e+00 0.000000000000e+00 0.000000000000e+00 0.000000000000e+00 0.000000000000e+00 0.000000000000e+00 0.000000000000e+00 0.000000000000e+00 0.000000000000e+00 0.000000000000e+00 0.000000000000e+00 0.000000000000e+00 0.000000000000e+00 0.000000000000e+00 0.000000000000e+00 0.000000000000e+00 0.000000000000e+00 0.000000000000e+00 0.000000000000e+00 0.000000000000e+00 0.000000000000e+00 0.000000000000e+00 0.000000000000e+00 0.000000000000e+00 0.000000000000e+00 0.000000000000e+00 0.000000000000e+00 0.000000000000e+00 0.000000000000e+00 0.000000000000e+00 0.000000000000e+00 0.000000000000e+00 0.000000000000e+00 0.000000000000e+00 0.000000000000e+00 0.000000000000e+00 0.000000000000e+00 0.000000000000e+00 0.000000000000e+00 0.000000000000e+00 0.000000000000e+00 0.000000000000e+00 0.000000000000e+00 0.000000000000e+00 0.000000000000e+00 0.000000000000e+00 0.000000000000e+00 0.000000000000e+00 0.000000000000e+00 0.000000000000e+00 0.000000000000e+00 0.000000000000e+00 0.000000000000e+00 0.000000000000e+00 0.000000000000e+00 0.000000000000e+00 0.000000000000e+00 0.000000000000e+00 0.000000000000e+00 0.000000000000e+00 0.000000000000e+00 0.000000000000e+00 0.000000000000e+00 0.000000000000e+00 0.000000000000e+00 0.000000000000e+00 0.000000000000e+00 0.000000000000e+00 0.000000000000e+00 0.000000000000e+00 0.000000000000e+00 0.000000000000e+00 0.000000000000e+00 0.000000000000e+00 0.000000000000e+00 0.000000000000e+00 0.000000000000e+00 0.000000000000e+00 0.000000000000e+00 0.000000000000e+00 0.000000000000e+00 0.000000000000e+00 0.000000000000e+00 0.000000000000e+00 0.000000000000e+00 0.000000000000e+00 0.000000000000e+00 0.000000000000e+00 0.000000000000e+00 0.000000000000e+00 0.000000000000e+00 0.000000000000e+00 0.000000000000e+00 0.000000000000e+00 0.000000000000e+00 0.000000000000e+00 0.000000000000e+00 0.000000000000e+00 0.000000000000e+00 0.000000000000e+00 0.000000000000e+00 0.000000000000e+00 0.000000000000e+00 0.000000000000e+00 0.000000000000e+00 0.000000000000e+00 0.000000000000e+00 0.000000000000e+00 0.000000000000e+00 0.000000000000e+00 0.000000000000e+00 0.000000000000e+00 0.000000000000e+00 0.000000000000e+00 0.000000000000e+00 0.000000000000e+00 0.000000000000e+00 0.000000000000e+00 0.000000000000e+00 0.000000000000e+00 0.000000000000e+00 0.000000000000e+00 0.000000000000e+00 0.000000000000e+00 0.000000000000e+00 0.000000000000e+00 0.000000000000e+00 0.000000000000e+00 0.000000000000e+00 0.000000000000e+00 0.000000000000e+00 0.000000000000e+00 0.000000000000e+00 0.000000000000e+00 0.000000000000e+00 0.000000000000e+00 0.000000000000e+00 0.000000000000e+00 0.000000000000e+00 0.000000000000e+00 0.000000000000e+00 0.000000000000e+00 0.000000000000e+00 0.000000000000e+00 0.000000000000e+00 0.000000000000e+00 0.000000000000e+00 0.000000000000e+00 0.000000000000e+00 0.000000000000e+00 0.000000000000e+00 0.000000000000e+00 0.000000000000e+00 0.000000000000e+00 0.000000000000e+00 0.000000000000e+00 0.000000000000e+00 0.000000000000e+00 0.000000000000e+00 0.000000000000e+00 0.000000000000e+00 0.000000000000e+00 0.000000000000e+00 0.000000000000e+00 0.000000000000e+00 0.000000000000e+00 0.000000000000e+00 0.000000000000e+00 0.000000000000e+00 0.000000000000e+00 0.000000000000e+00 0.000000000000e+00 0.000000000000e+00 0.000000000000e+00 0.000000000000e+00 0.000000000000e+00 0.000000000000e+00 0.000000000000e+00 0.000000000000e+00 0.000000000000e+00 0.000000000000e+00 0.000000000000e+00 0.000000000000e+00 0.000000000000e+00 0.000000000000e+00 0.000000000000e+00 0.000000000000e+00 0.000000000000e+00 0.000000000000e+00 0.000000000000e+00 0.000000000000e+00 0.000000000000e+00 0.000000000000e+00 0.000000000000e+00 0.000000000000e+00 0.000000000000e+00 0.000000000000e+00 0.000000000000e+00 0.000000000000e+00 0.000000000000e+00 0.000000000000e+00 0.000000000000e+00 0.000000000000e+00 0.000000000000e+00 0.000000000000e+00 0.000000000000e+00 0.000000000000e+00 0.000000000000e+00 0.000000000000e+00 0.000000000000e+00 0.000000000000e+00 0.000000000000e+00 0.000000000000e+00 0.000000000000e+00 0.000000000000e+00 0.000000000000e+00 0.000000000000e+00 0.000000000000e+00 0.000000000000e+00 0.000000000000e+00 0.000000000000e+00 0.000000000000e+00 0.000000000000e+00 0.000000000000e+00 0.000000000000e+00 0.000000000000e+00 0.000000000000e+00 0.000000000000e+00 0.000000000000e+00 0.000000000000e+00 0.000000000000e+00 0.000000000000e+00 0.000000000000e+00 0.000000000000e+00 0.000000000000e+00 0.000000000000e+00 0.000000000000e+00 0.000000000000e+00 0.000000000000e+00 0.000000000000e+00 0.000000000000e+00 0.000000000000e+00 0.000000000000e+00 0.000000000000e+00 0.000000000000e+00 0.000000000000e+00 0.000000000000e+00 0.000000000000e+00 0.000000000000e+00 0.000000000000e+00 0.000000000000e+00 0.000000000000e+00 0.000000000000e+00 0.000000000000e+00 0.000000000000e+00 0.000000000000e+00 0.000000000000e+00 0.000000000000e+00 0.000000000000e+00 0.000000000000e+00 0.000000000000e+00 0.000000000000e+00 0.000000000000e+00 0.000000000000e+00 0.000000000000e+00 0.000000000000e+00 0.000000000000e+00 0.000000000000e+00 0.000000000000e+00 0.000000000000e+00 0.000000000000e+00 0.000000000000e+00 0.000000000000e+00 0.000000000000e+00 0.000000000000e+00 0.000000000000e+00 0.000000000000e+00 0.000000000000e+00 0.000000000000e+00 0.000000000000e+00 0.000000000000e+00 0.000000000000e+00 0.000000000000e+00 0.000000000000e+00 0.000000000000e+00 0.000000000000e+00 0.000000000000e+00 0.000000000000e+00 0.000000000000e+00 0.000000000000e+00 0.000000000000e+00 0.000000000000e+00 0.000000000000e+00 0.000000000000e+00 0.000000000000e+00 0.000000000000e+00 0.000000000000e+00 0.000000000000e+00 0.000000000000e+00 0.000000000000e+00 0.000000000000e+00 0.000000000000e+00 0.000000000000e+00 0.000000000000e+00 0.000000000000e+00 0.000000000000e+00 0.000000000000e+00 0.000000000000e+00 0.000000000000e+00 0.000000000000e+00 0.000000000000e+00 0.000000000000e+00 0.000000000000e+00 0.000000000000e+00 0.000000000000e+00 0.000000000000e+00 0.000000000000e+00 0.000000000000e+00 0.000000000000e+00 0.000000000000e+00 0.000000000000e+00 0.000000000000e+00 0.000000000000e+00 0.000000000000e+00 0.000000000000e+00 0.000000000000e+00 0.000000000000e+00 0.000000000000e+00 0.000000000000e+00 0.000000000000e+00 0.000000000000e+00 0.000000000000e+00 0.000000000000e+00 0.000000000000e+00 0.000000000000e+00 0.000000000000e+00 0.000000000000e+00 0.000000000000e+00 0.000000000000e+00 0.000000000000e+00 0.000000000000e+00 0.000000000000e+00 0.000000000000e+00 0.000000000000e+00 0.000000000000e+00 0.000000000000e+00 0.000000000000e+00 0.000000000000e+00 0.000000000000e+00 0.000000000000e+00 0.000000000000e+00 0.000000000000e+00 0.000000000000e+00 0.000000000000e+00 0.000000000000e+00 0.000000000000e+00 0.000000000000e+00 0.000000000000e+00 0.000000000000e+00 0.000000000000e+00 0.000000000000e+00 0.000000000000e+00 0.000000000000e+00 0.000000000000e+00 0.000000000000e+00 0.000000000000e+00 0.000000000000e+00 0.000000000000e+00 0.000000000000e+00 0.000000000000e+00 0.000000000000e+00 0.000000000000e+00 0.000000000000e+00 0.000000000000e+00 0.000000000000e+00 0.000000000000e+00 0.000000000000e+00 0.000000000000e+00 0.000000000000e+00 0.000000000000e+00 0.000000000000e+00 0.000000000000e+00 0.000000000000e+00 0.000000000000e+00 0.000000000000e+00 0.000000000000e+00 0.000000000000e+00 0.000000000000e+00 0.000000000000e+00 0.000000000000e+00 0.000000000000e+00 0.000000000000e+00 0.000000000000e+00 0.000000000000e+00 0.000000000000e+00 0.000000000000e+00 0.000000000000e+00 0.000000000000e+00 0.000000000000e+00 0.000000000000e+00 0.000000000000e+00 0.000000000000e+00 0.000000000000e+00 0.000000000000e+00 0.000000000000e+00 0.000000000000e+00 0.000000000000e+00 0.000000000000e+00 0.000000000000e+00 0.000000000000e+00 0.000000000000e+00 0.000000000000e+00 0.000000000000e+00 0.000000000000e+00 0.000000000000e+00 0.000000000000e+00 0.000000000000e+00 0.000000000000e+00 0.000000000000e+00 0.000000000000e+00 0.000000000000e+00 0.000000000000e+00 0.000000000000e+00 0.000000000000e+00 0.000000000000e+00 0.000000000000e+00 0.000000000000e+00 0.000000000000e+00 0.000000000000e+00 0.000000000000e+00 0.000000000000e+00 0.000000000000e+00 0.000000000000e+00 0.000000000000e+00 0.000000000000e+00 0.000000000000e+00 0.000000000000e+00 0.000000000000e+00 0.000000000000e+00 0.000000000000e+00 0.000000000000e+00 0.000000000000e+00 0.000000000000e+00 0.000000000000e+00 0.000000000000e+00 0.000000000000e+00 0.000000000000e+00 0.000000000000e+00 0.000000000000e+00 0.000000000000e+00 0.000000000000e+00 0.000000000000e+00 0.000000000000e+00 0.000000000000e+00 0.000000000000e+00 0.000000000000e+00 0.000000000000e+00 0.000000000000e+00 0.000000000000e+00 0.000000000000e+00 0.000000000000e+00 0.000000000000e+00 0.000000000000e+00 0.000000000000e+00 0.000000000000e+00 0.000000000000e+00 0.000000000000e+00 0.000000000000e+00 0.000000000000e+00 0.000000000000e+00 0.000000000000e+00 0.000000000000e+00 0.000000000000e+00 0.000000000000e+00 0.000000000000e+00 0.000000000000e+00 0.000000000000e+00 0.000000000000e+00 0.000000000000e+00 0.000000000000e+00 0.000000000000e+00 0.000000000000e+00 0.000000000000e+00 0.000000000000e+00 0.000000000000e+00 0.000000000000e+00 0.000000000000e+00 0.000000000000e+00 0.000000000000e+00 0.000000000000e+00 0.000000000000e+00 0.000000000000e+00 0.000000000000e+00 0.000000000000e+00 0.000000000000e+00 0.000000000000e+00 0.000000000000e+00 0.000000000000e+00 0.000000000000e+00 0.000000000000e+00 0.000000000000e+00 0.000000000000e+00 0.000000000000e+00 0.000000000000e+00 0.000000000000e+00 0.000000000000e+00 0.000000000000e+00 0.000000000000e+00 0.000000000000e+00 0.000000000000e+00 0.000000000000e+00 0.000000000000e+00 0.000000000000e+00 0.000000000000e+00 0.000000000000e+00 0.000000000000e+00 0.000000000000e+00 0.000000000000e+00 0.000000000000e+00 0.000000000000e+00 0.000000000000e+00 0.000000000000e+00 0.000000000000e+00 0.000000000000e+00 0.000000000000e+00 0.000000000000e+00 0.000000000000e+00 0.000000000000e+00 0.000000000000e+00 0.000000000000e+00 0.000000000000e+00 0.000000000000e+00 0.000000000000e+00 0.000000000000e+00 0.000000000000e+00 0.000000000000e+00 0.000000000000e+00 0.000000000000e+00 0.000000000000e+00 0.000000000000e+00 0.000000000000e+00 0.000000000000e+00 0.000000000000e+00 0.000000000000e+00 0.000000000000e+00 0.000000000000e+00 0.000000000000e+00 0.000000000000e+00 0.000000000000e+00 0.000000000000e+00 0.000000000000e+00 0.000000000000e+00 0.000000000000e+00 0.000000000000e+00 0.000000000000e+00 0.000000000000e+00 0.000000000000e+00 0.000000000000e+00 0.000000000000e+00 0.000000000000e+00 0.000000000000e+00 0.000000000000e+00 0.000000000000e+00 0.000000000000e+00 0.000000000000e+00 0.000000000000e+00 0.000000000000e+00 0.000000000000e+00 0.000000000000e+00 0.000000000000e+00 0.000000000000e+00 0.000000000000e+00 0.000000000000e+00 0.000000000000e+00 0.000000000000e+00 0.000000000000e+00 0.000000000000e+00 0.000000000000e+00 0.000000000000e+00 0.000000000000e+00 0.000000000000e+00 0.000000000000e+00 0.000000000000e+00 0.000000000000e+00 0.000000000000e+00 0.000000000000e+00 0.000000000000e+00 0.000000000000e+00 0.000000000000e+00 0.000000000000e+00 0.000000000000e+00 0.000000000000e+00 0.000000000000e+00 0.000000000000e+00 0.000000000000e+00 0.000000000000e+00 0.000000000000e+00 0.000000000000e+00 0.000000000000e+00 0.000000000000e+00 0.000000000000e+00 0.000000000000e+00 0.000000000000e+00 0.000000000000e+00 0.000000000000e+00 0.000000000000e+00 0.000000000000e+00 0.000000000000e+00 0.000000000000e+00 0.000000000000e+00 0.000000000000e+00 0.000000000000e+00 0.000000000000e+00 0.000000000000e+00 0.000000000000e+00 0.000000000000e+00 0.000000000000e+00 0.000000000000e+00 0.000000000000e+00 0.000000000000e+00 0.000000000000e+00 0.000000000000e+00 0.000000000000e+00 0.000000000000e+00 0.000000000000e+00 0.000000000000e+00 0.000000000000e+00 0.000000000000e+00 0.000000000000e+00 0.000000000000e+00 0.000000000000e+00 0.000000000000e+00 0.000000000000e+00 0.000000000000e+00 0.000000000000e+00 0.000000000000e+00 0.000000000000e+00 0.000000000000e+00 0.000000000000e+00 0.000000000000e+00 0.000000000000e+00 0.000000000000e+00 0.000000000000e+00 0.000000000000e+00 0.000000000000e+00 0.000000000000e+00 0.000000000000e+00 0.000000000000e+00 0.000000000000e+00 0.000000000000e+00 0.000000000000e+00 0.000000000000e+00 0.000000000000e+00 0.000000000000e+00 0.000000000000e+00 0.000000000000e+00 0.000000000000e+00 0.000000000000e+00 0.000000000000e+00 0.000000000000e+00 0.000000000000e+00 0.000000000000e+00 0.000000000000e+00 0.000000000000e+00 0.000000000000e+00 0.000000000000e+00 0.000000000000e+00 0.000000000000e+00 0.000000000000e+00 0.000000000000e+00 0.000000000000e+00 0.000000000000e+00 0.000000000000e+00 0.000000000000e+00 0.000000000000e+00 0.000000000000e+00 0.000000000000e+00 0.000000000000e+00 0.000000000000e+00 0.000000000000e+00 0.000000000000e+00 0.000000000000e+00 0.000000000000e+00 0.000000000000e+00 0.000000000000e+00 0.000000000000e+00 0.000000000000e+00 0.000000000000e+00 0.000000000000e+00 0.000000000000e+00 0.000000000000e+00 0.000000000000e+00 0.000000000000e+00 0.000000000000e+00 0.000000000000e+00 0.000000000000e+00 0.000000000000e+00 0.000000000000e+00 0.000000000000e+00 0.000000000000e+00 0.000000000000e+00 0.000000000000e+00 0.000000000000e+00 0.000000000000e+00 0.000000000000e+00 0.000000000000e+00 0.000000000000e+00 0.000000000000e+00 0.000000000000e+00 0.000000000000e+00 0.000000000000e+00 0.000000000000e+00 0.000000000000e+00 0.000000000000e+00 0.000000000000e+00 0.000000000000e+00 0.000000000000e+00 0.000000000000e+00 0.000000000000e+00 0.000000000000e+00 0.000000000000e+00 0.000000000000e+00 0.000000000000e+00 0.000000000000e+00 0.000000000000e+00 0.000000000000e+00 0.000000000000e+00 0.000000000000e+00 0.000000000000e+00 0.000000000000e+00 0.000000000000e+00 0.000000000000e+00 0.000000000000e+00 0.000000000000e+00 0.000000000000e+00 0.000000000000e+00 0.000000000000e+00 0.000000000000e+00 0.000000000000e+00 0.000000000000e+00 0.000000000000e+00 0.000000000000e+00 0.000000000000e+00 0.000000000000e+00 0.000000000000e+00 0.000000000000e+00 0.000000000000e+00 0.000000000000e+00 0.000000000000e+00 0.000000000000e+00 0.000000000000e+00 0.000000000000e+00 0.000000000000e+00 0.000000000000e+00 0.000000000000e+00 0.000000000000e+00 0.000000000000e+00 0.000000000000e+00 0.000000000000e+00 0.000000000000e+00 0.000000000000e+00 0.000000000000e+00 0.000000000000e+00 0.000000000000e+00 0.000000000000e+00 0.000000000000e+00 0.000000000000e+00 0.000000000000e+00 0.000000000000e+00 0.000000000000e+00 0.000000000000e+00 0.000000000000e+00 0.000000000000e+00 0.000000000000e+00 0.000000000000e+00 0.000000000000e+00 0.000000000000e+00 0.000000000000e+00 0.000000000000e+00 0.000000000000e+00 0.000000000000e+00 0.000000000000e+00 0.000000000000e+00 0.000000000000e+00 0.000000000000e+00 0.000000000000e+00 0.000000000000e+00 0.000000000000e+00 0.000000000000e+00 0.000000000000e+00 0.000000000000e+00 0.000000000000e+00 0.000000000000e+00 0.000000000000e+00 0.000000000000e+00 0.000000000000e+00 0.000000000000e+00 0.000000000000e+00 0.000000000000e+00 0.000000000000e+00 0.000000000000e+00 0.000000000000e+00 0.000000000000e+00 0.000000000000e+00 0.000000000000e+00 0.000000000000e+00 0.000000000000e+00 0.000000000000e+00 0.000000000000e+00 0.000000000000e+00 0.000000000000e+00 0.000000000000e+00 0.000000000000e+00 0.000000000000e+00 0.000000000000e+00 0.000000000000e+00 0.000000000000e+00 0.000000000000e+00 0.000000000000e+00 0.000000000000e+00 0.000000000000e+00 0.000000000000e+00 0.000000000000e+00 0.000000000000e+00 0.000000000000e+00 0.000000000000e+00 0.000000000000e+00 0.000000000000e+00 0.000000000000e+00 0.000000000000e+00 0.000000000000e+00 0.000000000000e+00 0.000000000000e+00 0.000000000000e+00 0.000000000000e+00 0.000000000000e+00 0.000000000000e+00 0.000000000000e+00 0.000000000000e+00 0.000000000000e+00 0.000000000000e+00 0.000000000000e+00 0.000000000000e+00 0.000000000000e+00 0.000000000000e+00 0.000000000000e+00 0.000000000000e+00 0.000000000000e+00 0.000000000000e+00 0.000000000000e+00 0.000000000000e+00 0.000000000000e+00 0.000000000000e+00 0.000000000000e+00 0.000000000000e+00 0.000000000000e+00 0.000000000000e+00 0.000000000000e+00 0.000000000000e+00 0.000000000000e+00 0.000000000000e+00 0.000000000000e+00 0.000000000000e+00 0.000000000000e+00 0.000000000000e+00 0.000000000000e+00 0.000000000000e+00 0.000000000000e+00 0.000000000000e+00 0.000000000000e+00 0.000000000000e+00 0.000000000000e+00 0.000000000000e+00 0.000000000000e+00 0.000000000000e+00 0.000000000000e+00 0.000000000000e+00 0.000000000000e+00 0.000000000000e+00 0.000000000000e+00 0.000000000000e+00 0.000000000000e+00 0.000000000000e+00 0.000000000000e+00 0.000000000000e+00 0.000000000000e+00 0.000000000000e+00 0.000000000000e+00 0.000000000000e+00 0.000000000000e+00 0.000000000000e+00 0.000000000000e+00 0.000000000000e+00 0.000000000000e+00 0.000000000000e+00 0.000000000000e+00 0.000000000000e+00 0.000000000000e+00 0.000000000000e+00 0.000000000000e+00 0.000000000000e+00 0.000000000000e+00 0.000000000000e+00 0.000000000000e+00 0.000000000000e+00 0.000000000000e+00 0.000000000000e+00 0.000000000000e+00 0.000000000000e+00 0.000000000000e+00 0.000000000000e+00 0.000000000000e+00 0.000000000000e+00 0.000000000000e+00 0.000000000000e+00 0.000000000000e+00 0.000000000000e+00 0.000000000000e+00 0.000000000000e+00 0.000000000000e+00 0.000000000000e+00 0.000000000000e+00 0.000000000000e+00 0.000000000000e+00 0.000000000000e+00 0.000000000000e+00 0.000000000000e+00 0.000000000000e+00 0.000000000000e+00 0.000000000000e+00 0.000000000000e+00 0.000000000000e+00 0.000000000000e+00 0.000000000000e+00 0.000000000000e+00 0.000000000000e+00 0.000000000000e+00 0.000000000000e+00 0.000000000000e+00 0.000000000000e+00 0.000000000000e+00 0.000000000000e+00 0.000000000000e+00 0.000000000000e+00 0.000000000000e+00 0.000000000000e+00 0.000000000000e+00 0.000000000000e+00 0.000000000000e+00 0.000000000000e+00 0.000000000000e+00 0.000000000000e+00 0.000000000000e+00 0.000000000000e+00 0.000000000000e+00 0.000000000000e+00 0.000000000000e+00 0.000000000000e+00 0.000000000000e+00 0.000000000000e+00 0.000000000000e+00 0.000000000000e+00 0.000000000000e+00 0.000000000000e+00 0.000000000000e+00 0.000000000000e+00 0.000000000000e+00 0.000000000000e+00 0.000000000000e+00 0.000000000000e+00 0.000000000000e+00 0.000000000000e+00 0.000000000000e+00 0.000000000000e+00 0.000000000000e+00 0.000000000000e+00 0.000000000000e+00 0.000000000000e+00 0.000000000000e+00 0.000000000000e+00 0.000000000000e+00 0.000000000000e+00 0.000000000000e+00 0.000000000000e+00 0.000000000000e+00 0.000000000000e+00 0.000000000000e+00 0.000000000000e+00 0.000000000000e+00 0.000000000000e+00 0.000000000000e+00 0.000000000000e+00 0.000000000000e+00 0.000000000000e+00 0.000000000000e+00 0.000000000000e+00 0.000000000000e+00 0.000000000000e+00 0.000000000000e+00 0.000000000000e+00 0.000000000000e+00 0.000000000000e+00 0.000000000000e+00 0.000000000000e+00 0.000000000000e+00 0.000000000000e+00 0.000000000000e+00 0.000000000000e+00 0.000000000000e+00 0.000000000000e+00 0.000000000000e+00 0.000000000000e+00 0.000000000000e+00 0.000000000000e+00 0.000000000000e+00 0.000000000000e+00 0.000000000000e+00 0.000000000000e+00 0.000000000000e+00 0.000000000000e+00 0.000000000000e+00 0.000000000000e+00 0.000000000000e+00 0.000000000000e+00 0.000000000000e+00 0.000000000000e+00 0.000000000000e+00 0.000000000000e+00 0.000000000000e+00 0.000000000000e+00 0.000000000000e+00 0.000000000000e+00 0.000000000000e+00 0.000000000000e+00 0.000000000000e+00 0.000000000000e+00 0.000000000000e+00 0.000000000000e+00 0.000000000000e+00 0.000000000000e+00 0.000000000000e+00 0.000000000000e+00 0.000000000000e+00 0.000000000000e+00 0.000000000000e+00 0.000000000000e+00 0.000000000000e+00 0.000000000000e+00 0.000000000000e+00 0.000000000000e+00 
        </DataArray>
        <DataArray type="Float64" Name="DISPLACEMENT" NumberOfComponents="3" format="ascii">
          0.000000000000e+00 0.000000000000e+00 0.000000000000e+00 0.000000000000e+00 0.000000000000e+00 0.000000000000e+00 0.000000000000e+00 -3.768609257886e-01 0.000000000000e+00 0.000000000000e+00 -3.768594017892e-01 0.000000000000e+00 -3.881568888112e-02 -1.940846042954e-01 0.000000000000e+00 -5.445510988916e-06 -4.069338286572e-01 0.000000000000e+00 0.000000000000e+00 -3.987252854758e-01 0.000000000000e+00 0.000000000000e+00 -3.987242984630e-01 0.000000000000e+00 3.881534369886e-02 -1.940123635541e-01 0.000000000000e+00 3.146010471210e-06 1.542075606093e-02 0.000000000000e+00 5.566984573654e-03 0.000000000000e+00 0.000000000000e+00 1.076045049240e-02 0.000000000000e+00 0.000000000000e+00 1.518750279571e-02 0.000000000000e+00 0.000000000000e+00 1.845149491560e-02 0.000000000000e+00 0.000000000000e+00 2.013193196460e-02 0.000000000000e+00 0.000000000000e+00 1.990214679933e-02 0.000000000000e+00 0.000000000000e+00 1.754008308110e-02 0.000000000000e+00 0.000000000000e+00 1.311031958681e-02 0.000000000000e+00 0.000000000000e+00 7.024538797821e-03 0.000000000000e+00 0.000000000000e+00 -6.926624448674e-07 0.000000000000e+00 0.000000000000e+00 -7.029582505794e-03 0.000000000000e+00 0.000000000000e+00 -1.311438024522e-02 0.000000000000e+00 0.000000000000e+00 -1.754291313453e-02 0.000000000000e+00 0.000000000000e+00 -1.990468028133e-02 0.000000000000e+00 0.000000000000e+00 -2.014118429653e-02 0.000000000000e+00 0.000000000000e+00 -1.845414497577e-02 0.000000000000e+00 0.000000000000e+00 -1.519102952167e-02 0.000000000000e+00 0.000000000000e+00 -1.075811981776e-02 0.000000000000e+00 0.000000000000e+00 -5.561295062972e-03 0.000000000000e+00 0.000000000000e+00 0.000000000000e+00 -1.306160444555e-02 0.000000000000e+00 0.000000000000e+00 -2.775226560100e-02 0.000000000000e+00 0.000000000000e+00 -4.420926857521e-02 0.000000000000e+00 0.000000000000e+00 -6.242332420168e-02 0.000000000000e+00 0.000000000000e+00 -8.228017734510e-02 0.000000000000e+00 0.000000000000e+00 -1.035128734089e-01 0.000000000000e+00 0.000000000000e+00 -1.257522723354e-01 0.000000000000e+00 0.000000000000e+00 -1.485889119424e-01 0.000000000000e+00 0.000000000000e+00 -1.716681689939e-01 0.000000000000e+00 0.000000000000e+00 -1.947004043723e-01 0.000000000000e+00 0.000000000000e+00 -2.175119373622e-01 0.000000000000e+00 0.000000000000e+00 -2.399562600717e-01 0.000000000000e+00 0.000000000000e+00 -2.618285591826e-01 0.000000000000e+00 0.000000000000e+00 -2.828811692173e-01 0.000000000000e+00 0.000000000000e+00 -3.027798586686e-01 0.000000000000e+00 0.000000000000e+00 -3.212208316000e-01 0.000000000000e+00 0.000000000000e+00 -3.379481565085e-01 0.000000000000e+00 0.000000000000e+00 -3.528041213225e-01 0.000000000000e+00 0.000000000000e+00 -3.657497014855e-01 0.000000000000e+00 0.000000000000e+00 -3.851793036734e-01 0.000000000000e+00 0.000000000000e+00 -3.923513075725e-01 0.000000000000e+00 -4.839035960865e-03 -3.995914801827e-01 0.000000000000e+00 -9.298226777972e-03 -4.021275674327e-01 0.000000000000e+00 -1.293588905135e-02 -4.061426691645e-01 0.000000000000e+00 -1.546711660252e-02 -4.113645829297e-01 0.000000000000e+00 -1.654775616696e-02 -4.173243172805e-01 0.000000000000e+00 -1.602601858998e-02 -4.235088755721e-01 0.000000000000e+00 -1.386735514185e-02 -4.292569251153e-01 0.000000000000e+00 -1.019331790263e-02 -4.339634646370e-01 0.000000000000e+00 -5.424968563367e-03 -4.370378157254e-01 0.000000000000e+00 8.050710284332e-06 -4.381138023415e-01 0.000000000000e+00 5.405232082343e-03 -4.370413704116e-01 0.000000000000e+00 1.021756712489e-02 -4.339492341471e-01 0.000000000000e+00 1.385197746699e-02 -4.292603874181e-01 0.000000000000e+00 1.602939592561e-02 -4.235090830895e-01 0.000000000000e+00 1.655153088720e-02 -4.173279801755e-01 0.000000000000e+00 1.546477217377e-02 -4.113623734499e-01 0.000000000000e+00 1.294208556160e-02 -4.061487208159e-01 0.000000000000e+00 9.286089890085e-03 -4.021222429424e-01 0.000000000000e+00 4.844539960554e-03 -3.995888361882e-01 0.000000000000e+00 0.000000000000e+00 -3.923506055857e-01 0.000000000000e+00 0.000000000000e+00 -3.851789235634e-01 0.000000000000e+00 0.000000000000e+00 -3.657478146441e-01 0.000000000000e+00 0.000000000000e+00 -3.528035911651e-01 0.000000000000e+00 0.000000000000e+00 -3.379476963592e-01 0.000000000000e+00 0.000000000000e+00 -3.212214938062e-01 0.000000000000e+00 0.000000000000e+00 -3.027804242192e-01 0.000000000000e+00 0.000000000000e+00 -2.828771926756e-01 0.000000000000e+00 0.000000000000e+00 -2.618295850904e-01 0.000000000000e+00 0.000000000000e+00 -2.399581477691e-01 0.000000000000e+00 0.000000000000e+00 -2.175155111284e-01 0.000000000000e+00 0.000000000000e+00 -1.947060480926e-01 0.000000000000e+00 0.000000000000e+00 -1.716722623224e-01 0.000000000000e+00 0.000000000000e+00 -1.485918473112e-01 0.000000000000e+00 0.000000000000e+00 -1.257534011899e-01 0.000000000000e+00 0.000000000000e+00 -1.035095570136e-01 0.000000000000e+00 0.000000000000e+00 -8.228037365816e-02 0.000000000000e+00 0.000000000000e+00 -6.242473831870e-02 0.000000000000e+00 0.000000000000e+00 -4.420909349289e-02 0.000000000000e+00 0.000000000000e+00 -2.775306619011e-02 0.000000000000e+00 0.000000000000e+00 -1.305660512217e-02 0.000000000000e+00 2.902881119538e-03 -3.778851773151e-01 0.000000000000e+00 5.613456615659e-03 -3.809081059755e-01 0.000000000000e+00 7.907175405439e-03 -3.857463270375e-01 0.000000000000e+00 9.597412352970e-03 -3.920979078066e-01 0.000000000000e+00 1.045884695863e-02 -3.994895452549e-01 0.000000000000e+00 1.032155099108e-02 -4.072870953961e-01 0.000000000000e+00 9.096817448635e-03 -4.146901236898e-01 0.000000000000e+00 6.795414781960e-03 -4.208429273630e-01 0.000000000000e+00 3.637338831819e-03 -4.249240462269e-01 0.000000000000e+00 3.418454170037e-06 -4.263560638880e-01 0.000000000000e+00 -3.642519431419e-03 -4.249221064101e-01 0.000000000000e+00 -6.791720668999e-03 -4.208406683182e-01 0.000000000000e+00 -9.092619265399e-03 -4.146912116155e-01 0.000000000000e+00 -1.032400909413e-02 -4.072842158484e-01 0.000000000000e+00 -1.046028839593e-02 -3.994914368026e-01 0.000000000000e+00 -9.596607139275e-03 -3.920999917275e-01 0.000000000000e+00 -7.909749859277e-03 -3.857472413562e-01 0.000000000000e+00 -5.609961935597e-03 -3.809063949957e-01 0.000000000000e+00 -2.904433345039e-03 -3.778861199095e-01 0.000000000000e+00 -2.776551229024e-03 -4.059337649279e-01 0.000000000000e+00 -5.553787487489e-03 -4.029623368296e-01 0.000000000000e+00 -8.297968011783e-03 -3.980437538777e-01 0.000000000000e+00 -1.104839344492e-02 -3.912316323815e-01 0.000000000000e+00 -1.374515450685e-02 -3.825978854856e-01 0.000000000000e+00 -1.640373962049e-02 -3.722234880750e-01 0.000000000000e+00 -1.903161224644e-02 -3.602289180437e-01 0.000000000000e+00 -2.163641625553e-02 -3.466758153421e-01 0.000000000000e+00 -2.420482053997e-02 -3.316863266010e-01 0.000000000000e+00 -2.679468206978e-02 -3.152917187519e-01 0.000000000000e+00 -2.937169909463e-02 -2.975741874893e-01 0.000000000000e+00 -3.183867300810e-02 -2.786742146274e-01 0.000000000000e+00 -3.413960053488e-02 -2.586006194042e-01 0.000000000000e+00 -3.616963023353e-02 -2.376477315856e-01 0.000000000000e+00 -3.774033701292e-02 -2.160034298336e-01 0.000000000000e+00 -3.933675359497e-02 -1.720587052991e-01 0.000000000000e+00 -3.925169646494e-02 -1.505171699302e-01 0.000000000000e+00 -3.869340683430e-02 -1.295971544514e-01 0.000000000000e+00 -3.768686249708e-02 -1.096643637405e-01 0.000000000000e+00 -3.630672497616e-02 -9.084906905342e-02 0.000000000000e+00 -3.463951627218e-02 -7.330070509579e-02 0.000000000000e+00 -3.264680643456e-02 -5.713956471544e-02 0.000000000000e+00 -3.031813295320e-02 -4.240074472410e-02 0.000000000000e+00 -2.763585832015e-02 -2.917334036558e-02 0.000000000000e+00 -2.459268196027e-02 -1.754883822808e-02 0.000000000000e+00 -2.117189528216e-02 -7.594942370084e-03 0.000000000000e+00 -1.741005615525e-02 6.335070255957e-04 0.000000000000e+00 -1.335626575234e-02 7.073699359855e-03 0.000000000000e+00 -9.033557750337e-03 1.169941739962e-02 0.000000000000e+00 -4.570479367552e-03 1.448925977764e-02 0.000000000000e+00 4.563141137307e-03 1.448783742188e-02 0.000000000000e+00 9.044263063388e-03 1.170376047679e-02 0.000000000000e+00 1.334366925661e-02 7.078631613932e-03 0.000000000000e+00 1.742140086506e-02 6.345225447608e-04 0.000000000000e+00 2.117971762509e-02 -7.591533872118e-03 0.000000000000e+00 2.458959876702e-02 -1.755411512481e-02 0.000000000000e+00 2.764007274971e-02 -2.917246204763e-02 0.000000000000e+00 3.032012534497e-02 -4.239652069705e-02 0.000000000000e+00 3.262993361558e-02 -5.712261047611e-02 0.000000000000e+00 3.462954964730e-02 -7.330717430113e-02 0.000000000000e+00 3.632638537653e-02 -9.086241127171e-02 0.000000000000e+00 3.767568402903e-02 -1.096413749603e-01 0.000000000000e+00 3.867053972121e-02 -1.296197467005e-01 0.000000000000e+00 3.925808755173e-02 -1.505027944725e-01 0.000000000000e+00 3.930435546015e-02 -1.721059541915e-01 0.000000000000e+00 3.777055036785e-02 -2.160535962272e-01 0.000000000000e+00 3.615985603466e-02 -2.376354146949e-01 0.000000000000e+00 3.416393614771e-02 -2.586219943110e-01 0.000000000000e+00 3.184745198837e-02 -2.786498522877e-01 0.000000000000e+00 2.934532355109e-02 -2.975910750356e-01 0.000000000000e+00 2.680378276870e-02 -3.153014443315e-01 0.000000000000e+00 2.422594310601e-02 -3.316667276447e-01 0.000000000000e+00 2.162988571154e-02 -3.466731287780e-01 0.000000000000e+00 1.902650182133e-02 -3.602278853665e-01 0.000000000000e+00 1.640317712609e-02 -3.722321627644e-01 0.000000000000e+00 1.373616310183e-02 -3.825933477868e-01 0.000000000000e+00 1.103335634344e-02 -3.912302249637e-01 0.000000000000e+00 8.315002210446e-03 -3.980369062868e-01 0.000000000000e+00 5.536098972079e-03 -4.029542471375e-01 0.000000000000e+00 2.786345215439e-03 -4.059358855706e-01 0.000000000000e+00 1.567408289361e-02 -3.266444658155e-01 0.000000000000e+00 -2.374487423346e-02 -6.235219971393e-02 0.000000000000e+00 2.516660756332e-02 -4.764217026332e-02 0.000000000000e+00 -1.657730195243e-02 -3.426141504738e-01 0.000000000000e+00 1.317626693538e-02 -2.551255385388e-01 0.000000000000e+00 1.261793682151e-02 -1.705299825639e-01 0.000000000000e+00 -1.844356276718e-02 -1.347963365621e-01 0.000000000000e+00 -1.038004166480e-02 -2.200613631492e-01 0.000000000000e+00 1.789403295392e-02 -3.781562246977e-01 0.000000000000e+00 -2.966067326400e-03 -4.056555262821e-01 0.000000000000e+00 -2.479461013393e-02 -1.691257440114e-02 0.000000000000e+00 4.108663567121e-03 4.829484604819e-03 0.000000000000e+00 -1.867840609442e-02 -2.872155583491e-01 0.000000000000e+00 2.629659534392e-02 -1.023437547170e-01 0.000000000000e+00 2.519765545156e-02 -1.631413928490e-02 0.000000000000e+00 -1.881944910685e-02 -3.776267958795e-01 0.000000000000e+00 2.242277933140e-02 -3.180990849025e-01 0.000000000000e+00 -3.092172879121e-02 -7.159478403642e-02 0.000000000000e+00 3.232037580895e-02 -5.471472795136e-02 0.000000000000e+00 -2.396231641309e-02 -3.352459783866e-01 0.000000000000e+00 1.582213722574e-02 -2.047040472146e-01 0.000000000000e+00 -1.682842318852e-02 -1.864548947666e-01 0.000000000000e+00 -1.035807812301e-02 4.582290967685e-03 0.000000000000e+00 8.081303196164e-03 -3.996283443058e-01 0.000000000000e+00 2.158212669744e-02 -1.537517293036e-01 0.000000000000e+00 -1.720929682405e-02 -2.369148974387e-01 0.000000000000e+00 1.861601697265e-02 -2.538182372822e-01 0.000000000000e+00 -2.447527989947e-02 -1.364539299081e-01 0.000000000000e+00 9.974329578463e-03 5.272609524080e-03 0.000000000000e+00 -7.817624610755e-03 -3.998660631214e-01 0.000000000000e+00 -2.602539522469e-02 -1.560201608660e-02 0.000000000000e+00 2.001525331234e-02 -3.763544168124e-01 0.000000000000e+00 1.465911949601e-02 -9.576038000658e-02 0.000000000000e+00 -9.463068891248e-03 -2.917335548105e-01 0.000000000000e+00 1.378964466044e-02 -3.741096480752e-01 0.000000000000e+00 -2.300453067072e-02 -2.038623614506e-02 0.000000000000e+00 2.206861269527e-02 -1.166333622560e-02 0.000000000000e+00 -1.366094230874e-02 -3.874831664487e-01 0.000000000000e+00 8.589353138276e-03 -3.511640138946e-01 0.000000000000e+00 -1.533423604336e-02 -3.463932229641e-02 0.000000000000e+00 7.870832421731e-03 -2.841576942289e-01 0.000000000000e+00 -1.220240836525e-02 -1.032907905747e-01 0.000000000000e+00 1.496424466474e-02 -4.433422681361e-02 0.000000000000e+00 -8.662309536612e-03 -3.412607294453e-01 0.000000000000e+00 7.694022742318e-03 -4.071887148698e-01 0.000000000000e+00 -1.215338366938e-02 1.070832614056e-03 0.000000000000e+00 -2.270659348179e-02 -2.896268445613e-01 0.000000000000e+00 3.070729644891e-02 -9.984811382819e-02 0.000000000000e+00 2.584775808123e-02 -1.457045540279e-02 0.000000000000e+00 -1.989361349040e-02 -3.769757174861e-01 0.000000000000e+00 6.244182526663e-03 -2.142364958208e-01 0.000000000000e+00 -7.402941540116e-03 -1.756609806295e-01 0.000000000000e+00 2.458867488521e-02 -3.377655979289e-01 0.000000000000e+00 -3.292589164965e-02 -5.178539096529e-02 0.000000000000e+00 2.354349353133e-02 -2.962662176902e-01 0.000000000000e+00 -3.176733458547e-02 -9.307590884918e-02 0.000000000000e+00 2.096535449348e-02 -2.097032450434e-02 0.000000000000e+00 -1.185873357579e-02 -3.706449497144e-01 0.000000000000e+00 1.598019919971e-02 -1.271277677349e-01 0.000000000000e+00 -1.100112556267e-02 -2.621074369157e-01 0.000000000000e+00 1.627556295369e-02 -2.937151796398e-01 0.000000000000e+00 -2.365189659011e-02 -9.541444531384e-02 0.000000000000e+00 2.008999737983e-02 -3.477358471253e-01 0.000000000000e+00 -2.858211139913e-02 -4.365845069349e-02 0.000000000000e+00 3.333190645575e-02 -6.646940687775e-02 0.000000000000e+00 -2.473671279145e-02 -3.227362325829e-01 0.000000000000e+00 1.705915979323e-02 -3.268071526803e-03 0.000000000000e+00 -1.155782856477e-02 -3.977705721655e-01 0.000000000000e+00 2.278864604467e-02 -3.520405166007e-01 0.000000000000e+00 -3.068856455864e-02 -3.908735090975e-02 0.000000000000e+00 6.243094890474e-03 -1.586085004677e-01 0.000000000000e+00 -4.670527804900e-03 -2.306410681851e-01 0.000000000000e+00 2.134431591761e-02 -2.216122873510e-01 0.000000000000e+00 -2.410949864207e-02 -1.689044753436e-01 0.000000000000e+00 -1.547471625440e-02 3.128835404601e-03 0.000000000000e+00 1.201630673989e-02 -3.956283597330e-01 0.000000000000e+00 2.851704296786e-02 -6.541589171361e-02 0.000000000000e+00 -2.005247704202e-02 -3.244508687223e-01 0.000000000000e+00 5.803579535141e-03 3.160148038017e-03 0.000000000000e+00 -3.411570023582e-03 -4.154479402568e-01 0.000000000000e+00 2.371302128423e-02 -1.902254818552e-01 0.000000000000e+00 -2.318998289109e-02 -2.002621549496e-01 0.000000000000e+00 -4.545039089566e-03 1.047593674013e-02 0.000000000000e+00 3.529641932690e-03 -4.034676653093e-01 0.000000000000e+00 -2.344730537093e-02 -3.523887180020e-01 0.000000000000e+00 3.141960614579e-02 -3.719944890839e-02 0.000000000000e+00 1.050759978217e-02 -3.986341955212e-01 0.000000000000e+00 -1.461100645630e-02 -6.414413992445e-04 0.000000000000e+00 1.851858370990e-02 -2.810273133893e-01 0.000000000000e+00 -2.591476062617e-02 -1.086426315589e-01 0.000000000000e+00 1.038859157481e-02 -2.165521840210e-01 0.000000000000e+00 -1.232287645984e-02 -1.741015825994e-01 0.000000000000e+00 9.222460013697e-03 -3.222438183042e-01 0.000000000000e+00 -1.508070797812e-02 -6.396886859226e-02 0.000000000000e+00 2.641153821595e-02 -2.700166268008e-02 0.000000000000e+00 -1.815278929581e-02 -3.669022060970e-01 0.000000000000e+00 2.144642143237e-02 -3.679151914547e-01 0.000000000000e+00 -2.844407700416e-02 -2.234998537921e-02 0.000000000000e+00 2.871866657814e-02 -1.329144759589e-01 0.000000000000e+00 -2.281103278618e-02 -2.569380013629e-01 0.000000000000e+00 1.519003916059e-02 3.765551623301e-03 0.000000000000e+00 -1.173595920694e-02 -3.960775012307e-01 0.000000000000e+00 1.359004399677e-02 -3.899860162260e-01 0.000000000000e+00 -2.138825888057e-02 -9.860796628561e-03 0.000000000000e+00 2.193467677007e-02 -9.222390751344e-02 0.000000000000e+00 -1.481945818381e-02 -2.965438056153e-01 0.000000000000e+00 1.900937529831e-02 -1.395878006475e-01 0.000000000000e+00 -1.386311416444e-02 -2.505930049062e-01 0.000000000000e+00 7.699897622029e-03 -2.505015227027e-01 0.000000000000e+00 -1.109570377295e-02 -1.385609395565e-01 0.000000000000e+00 1.537511293485e-02 -8.488661285114e-04 0.000000000000e+00 -1.149046683263e-02 -3.962689177270e-01 0.000000000000e+00 2.439085955547e-02 -2.739632802398e-01 0.000000000000e+00 -3.134668710246e-02 -1.154595745743e-01 0.000000000000e+00 2.952792030790e-02 -3.944714089627e-02 0.000000000000e+00 -2.135539731719e-02 -3.522016422476e-01 0.000000000000e+00 1.311235172626e-02 -3.516385907859e-01 0.000000000000e+00 1.033875796131e-02 -3.738316614622e-01 0.000000000000e+00 -2.157552184972e-02 -3.778267027209e-02 0.000000000000e+00 -1.920765362697e-02 -1.642171193659e-02 0.000000000000e+00 1.871690622546e-02 -6.456838381965e-02 0.000000000000e+00 -1.178466184210e-02 -3.228071629231e-01 0.000000000000e+00 1.464557128275e-02 -3.904054745008e-01 0.000000000000e+00 -1.929219118562e-02 -4.838655568097e-03 0.000000000000e+00 1.544178654757e-02 -8.828599829139e-04 0.000000000000e+00 -9.063535763603e-03 -4.069209668936e-01 0.000000000000e+00 1.385610628483e-02 -2.305332849315e-01 0.000000000000e+00 -1.745054298718e-02 -1.602363780308e-01 0.000000000000e+00 9.732953379204e-03 -6.737938096687e-02 0.000000000000e+00 -5.829843597093e-03 -3.176472879673e-01 0.000000000000e+00 9.244919224130e-03 -2.160849514048e-02 0.000000000000e+00 -4.796870241844e-03 -3.602887255507e-01 0.000000000000e+00 9.588920249848e-03 -1.251015529328e-01 0.000000000000e+00 -6.373074953882e-03 -2.631067702892e-01 0.000000000000e+00 1.920918115786e-02 -3.216179141788e-01 0.000000000000e+00 -2.759236970120e-02 -6.805924631364e-02 0.000000000000e+00 2.472041267268e-02 -3.268084761541e-01 0.000000000000e+00 -3.335064648449e-02 -6.222893078977e-02 0.000000000000e+00 1.572810223181e-02 -1.762019312968e-01 0.000000000000e+00 -1.368846146495e-02 -2.148414565701e-01 0.000000000000e+00 1.779938272845e-03 6.346971430448e-03 0.000000000000e+00 -1.366357270295e-03 -4.034505151451e-01 0.000000000000e+00 3.076070136568e-02 -8.232132140710e-02 0.000000000000e+00 -2.234928181525e-02 -3.071993467390e-01 0.000000000000e+00 1.169305978123e-02 -2.740957101407e-01 0.000000000000e+00 -1.729334596722e-02 -1.147553790707e-01 0.000000000000e+00 1.717805791643e-02 -3.705164742196e-01 0.000000000000e+00 -2.553912586058e-02 -2.410554192235e-02 0.000000000000e+00 2.991667235572e-02 -3.115552406953e-02 0.000000000000e+00 -2.253560309938e-02 -3.602318975235e-01 0.000000000000e+00 2.473647736437e-02 -1.261219721391e-01 0.000000000000e+00 -1.819057654023e-02 -2.639344760208e-01 0.000000000000e+00 2.417118564156e-02 -2.651651864607e-02 0.000000000000e+00 -1.516950865941e-02 -3.668647701681e-01 0.000000000000e+00 1.128321397867e-02 -3.973582029083e-01 0.000000000000e+00 -2.033978568214e-02 -5.625610149041e-03 0.000000000000e+00 -2.490994683806e-02 -2.921090850522e-01 0.000000000000e+00 3.278244472303e-02 -9.704171593508e-02 0.000000000000e+00 -1.813927363557e-02 -3.804100643086e-01 0.000000000000e+00 2.419417551185e-02 -1.029754247979e-02 0.000000000000e+00 8.066466004064e-03 -1.852939673535e-01 0.000000000000e+00 -7.383243138279e-03 -2.049119785657e-01 0.000000000000e+00 1.261040442945e-02 -3.017222962554e-01 0.000000000000e+00 -1.922544773770e-02 -8.632313857669e-02 0.000000000000e+00 -2.565768155850e-03 4.431775550467e-03 0.000000000000e+00 1.682963659005e-03 -4.107410185554e-01 0.000000000000e+00 1.997446528197e-02 -4.670752123394e-03 0.000000000000e+00 -1.545420682506e-02 -3.890987684708e-01 0.000000000000e+00 4.394590435043e-03 -3.598692564393e-01 0.000000000000e+00 -8.482167120236e-03 -2.170890039565e-02 0.000000000000e+00 1.654428120284e-02 -3.857036584169e-01 0.000000000000e+00 -2.191647796209e-02 -5.410539627217e-03 0.000000000000e+00 2.448439677789e-02 -2.482823059843e-01 0.000000000000e+00 -2.951038582173e-02 -1.414697692933e-01 0.000000000000e+00 4.832886408120e-03 -3.317013220832e-01 0.000000000000e+00 -8.432931265780e-03 -5.209386112330e-02 0.000000000000e+00 2.112088990306e-02 -8.232673253327e-03 0.000000000000e+00 -1.151370203720e-02 -3.907785579712e-01 0.000000000000e+00 1.650969845474e-02 -3.545785151547e-01 0.000000000000e+00 -2.531093857373e-02 -3.706306031391e-02 0.000000000000e+00 2.126799822629e-02 -4.036220075428e-02 0.000000000000e+00 -1.296689262115e-02 -3.486481071877e-01 0.000000000000e+00 4.976138183225e-03 -3.018976440955e-01 0.000000000000e+00 -8.090962136367e-03 -8.384189331550e-02 0.000000000000e+00 2.813262244296e-02 -1.582748728872e-01 0.000000000000e+00 -2.456735708341e-02 -2.316809059472e-01 0.000000000000e+00 5.999564328256e-03 1.089134605461e-02 0.000000000000e+00 -4.582524132234e-03 -4.034587075157e-01 0.000000000000e+00 1.626370664701e-02 -1.611097434813e-02 0.000000000000e+00 -8.523893978962e-03 -3.706041071795e-01 0.000000000000e+00 4.275699543742e-03 -2.621499453194e-01 0.000000000000e+00 -6.483841352744e-03 -1.257443055945e-01 0.000000000000e+00 2.344878590146e-02 -3.559519122468e-01 0.000000000000e+00 -3.100074556970e-02 -3.458128851041e-02 0.000000000000e+00 2.319318917239e-02 -3.503101048020e-01 0.000000000000e+00 -3.140903856970e-02 -3.905184907842e-02 0.000000000000e+00 3.204881746841e-03 -4.175004818664e-01 0.000000000000e+00 -5.650346893625e-03 2.817335154764e-03 0.000000000000e+00 7.309350621418e-03 -1.003127156327e-01 0.000000000000e+00 -4.608157521161e-03 -2.863010077293e-01 0.000000000000e+00 3.657442158503e-03 -2.339344469837e-01 0.000000000000e+00 -4.996162611710e-03 -1.550658918873e-01 0.000000000000e+00 2.321892782594e-02 -1.359887635525e-02 0.000000000000e+00 -1.628575761336e-02 -3.830230042918e-01 0.000000000000e+00 3.832024788074e-03 -1.906776076695e-01 0.000000000000e+00 -3.684876852998e-03 -1.989444307187e-01 0.000000000000e+00 2.402313977079e-02 -3.170341020926e-01 0.000000000000e+00 -3.257849757574e-02 -7.238560108432e-02 0.000000000000e+00 1.247504135666e-02 -1.958015291053e-01 0.000000000000e+00 -1.250396625196e-02 -1.952369697377e-01 0.000000000000e+00 1.143195275594e-02 -1.527571159680e-01 0.000000000000e+00 -8.414628762210e-03 -2.369897782476e-01 0.000000000000e+00 -7.708860360639e-03 4.251162143351e-03 0.000000000000e+00 5.774667044171e-03 -4.025267412093e-01 0.000000000000e+00 2.043346930503e-02 -3.710528931529e-01 0.000000000000e+00 -2.725482545070e-02 -2.182549915474e-02 0.000000000000e+00 2.474320578277e-02 -6.656992103454e-02 0.000000000000e+00 -1.662297886000e-02 -3.226006894866e-01 0.000000000000e+00 2.500177608318e-02 -3.020944143309e-01 0.000000000000e+00 -3.324681645611e-02 -8.696150853811e-02 0.000000000000e+00 8.687444893606e-03 -4.095695650500e-01 0.000000000000e+00 -1.555264460925e-02 -5.545048754180e-04 0.000000000000e+00 1.594771976991e-02 -2.572021686563e-01 0.000000000000e+00 -2.184086465816e-02 -1.329534210909e-01 0.000000000000e+00 1.495182676201e-02 -3.902624269781e-01 0.000000000000e+00 -1.924169206393e-02 -3.264311144996e-03 0.000000000000e+00 1.366672106680e-02 -3.920344720770e-01 0.000000000000e+00 -1.983521829722e-02 -7.028728449733e-03 0.000000000000e+00 2.690946165836e-02 -2.027877992327e-01 0.000000000000e+00 -2.766611874240e-02 -1.871235230185e-01 0.000000000000e+00 3.209409626495e-02 -4.548588333638e-02 0.000000000000e+00 -2.363440968743e-02 -3.436929352338e-01 0.000000000000e+00 -8.315812750809e-03 1.032401586836e-02 0.000000000000e+00 6.253008090458e-03 -4.025757801922e-01 0.000000000000e+00 8.658077070978e-03 2.919976176493e-03 0.000000000000e+00 -5.779311956759e-03 -4.074339053064e-01 0.000000000000e+00 1.907699401895e-02 -1.785903534349e-01 0.000000000000e+00 -1.721466953948e-02 -2.124402486331e-01 0.000000000000e+00 7.336378180562e-03 -4.940463117382e-02 0.000000000000e+00 -4.155263558012e-03 -3.339674204200e-01 0.000000000000e+00 1.692095460749e-02 -2.299352718870e-01 0.000000000000e+00 -2.061521534617e-02 -1.608695001619e-01 0.000000000000e+00 9.122762082904e-03 -2.380238930936e-01 0.000000000000e+00 -1.239819997532e-02 -1.518290304076e-01 0.000000000000e+00 9.830227063151e-05 8.338198413972e-03 0.000000000000e+00 -7.757159238270e-05 -4.030365726202e-01 0.000000000000e+00 2.053402391191e-02 -3.616319603842e-01 0.000000000000e+00 -2.838860537609e-02 -3.102527877162e-02 0.000000000000e+00 2.171330138419e-02 -3.373861466004e-01 0.000000000000e+00 -3.017692365560e-02 -5.314957758491e-02 0.000000000000e+00 1.117213919803e-02 -3.862851210797e-01 0.000000000000e+00 -2.082201777442e-02 -9.661424877607e-03 0.000000000000e+00 1.952386554214e-02 -3.016136723389e-01 0.000000000000e+00 -2.760240228387e-02 -8.785526304533e-02 0.000000000000e+00 2.739834409125e-02 -4.859173497538e-02 0.000000000000e+00 -1.879075316849e-02 -3.421841071443e-01 0.000000000000e+00 2.083986999701e-02 -1.177713230344e-01 0.000000000000e+00 -1.452258521941e-02 -2.717232888301e-01 0.000000000000e+00 2.009339531226e-02 -2.749933071371e-01 0.000000000000e+00 -2.738158306710e-02 -1.148170328605e-01 0.000000000000e+00 1.882832767392e-02 -3.275853380401e-03 0.000000000000e+00 -1.046828007274e-02 -4.028449372470e-01 0.000000000000e+00 2.376572892290e-02 -3.380963613238e-01 0.000000000000e+00 -3.206733149806e-02 -5.204561051089e-02 0.000000000000e+00 7.689601693048e-03 -3.712823089364e-01 0.000000000000e+00 -1.486746161587e-02 -1.407311285992e-02 0.000000000000e+00 9.441671851830e-03 -1.957371500262e-01 0.000000000000e+00 -9.479173975590e-03 -1.948463111091e-01 0.000000000000e+00 3.351273581136e-02 -7.036062429546e-02 0.000000000000e+00 -2.492970915619e-02 -3.186089259859e-01 0.000000000000e+00 2.158399828431e-02 -2.970458185274e-01 0.000000000000e+00 -2.976987646953e-02 -9.247986055161e-02 0.000000000000e+00 1.517432080564e-02 -2.751429423327e-01 0.000000000000e+00 -2.176594267801e-02 -1.143318102274e-01 0.000000000000e+00 3.005120851613e-02 -6.736054036558e-02 0.000000000000e+00 -2.155791729287e-02 -3.224948962666e-01 0.000000000000e+00 2.565444049389e-02 -9.016604925702e-02 0.000000000000e+00 -1.785958363568e-02 -2.991347608563e-01 0.000000000000e+00 1.249118990803e-02 -3.321463201310e-01 0.000000000000e+00 -1.998738861517e-02 -5.565286234426e-02 0.000000000000e+00 -6.347197893057e-03 3.982041942490e-03 0.000000000000e+00 4.431363416218e-03 -4.064610413553e-01 0.000000000000e+00 2.709498482652e-02 -2.299423535987e-01 0.000000000000e+00 -3.033072532760e-02 -1.596624595278e-01 0.000000000000e+00 1.704552850784e-02 -2.835502876575e-02 0.000000000000e+00 -9.455277023222e-03 -3.585060372852e-01 0.000000000000e+00 1.978631166646e-02 -9.993701610836e-03 0.000000000000e+00 -1.042410735531e-02 -3.829530908842e-01 0.000000000000e+00 4.609086753599e-03 -1.397104558568e-01 0.000000000000e+00 -3.152648861325e-03 -2.486711422201e-01 0.000000000000e+00 1.846302241279e-02 -1.554277230749e-01 0.000000000000e+00 -1.439603194829e-02 -2.352599642214e-01 0.000000000000e+00 2.739226362227e-02 -2.003950917756e-02 0.000000000000e+00 -2.019506450826e-02 -3.699547697807e-01 0.000000000000e+00 2.998928532817e-02 -2.878839660912e-02 0.000000000000e+00 -2.280152531745e-02 -3.619367997536e-01 0.000000000000e+00 -1.568816568167e-02 4.244774847993e-03 0.000000000000e+00 1.161233786244e-02 -3.957783302146e-01 0.000000000000e+00 -2.667585265219e-02 -2.821244477952e-01 0.000000000000e+00 3.369722454616e-02 -1.068816908023e-01 0.000000000000e+00 -1.372253634247e-02 -3.906870802430e-01 0.000000000000e+00 1.892995246859e-02 -3.020754756245e-04 0.000000000000e+00 1.020894508844e-02 3.691474289328e-03 0.000000000000e+00 -7.830752908392e-03 -4.001414045821e-01 0.000000000000e+00 2.866242331269e-02 -1.191093927034e-01 0.000000000000e+00 -2.163568827463e-02 -2.706741503864e-01 0.000000000000e+00 2.746402880169e-02 -2.789203285957e-02 0.000000000000e+00 -1.960848433867e-02 -3.654496876984e-01 0.000000000000e+00 1.703306185277e-02 -1.066129507667e-01 0.000000000000e+00 -1.134142881266e-02 -2.818202958542e-01 0.000000000000e+00 2.109505894206e-02 -4.887722495575e-03 0.000000000000e+00 -1.637727783543e-02 -3.874128007438e-01 0.000000000000e+00 1.070965020413e-02 1.378045149659e-03 0.000000000000e+00 -5.848478072633e-03 -4.168089085725e-01 0.000000000000e+00 1.927847178307e-02 -2.018838532992e-01 0.000000000000e+00 -1.998393249978e-02 -1.890708916905e-01 0.000000000000e+00 2.789678915807e-02 -1.044801214392e-01 0.000000000000e+00 -2.017019527424e-02 -2.851663523426e-01 0.000000000000e+00 2.471239004046e-02 -1.375192909674e-02 0.000000000000e+00 -1.885935132068e-02 -3.794288808022e-01 0.000000000000e+00 -9.038206054525e-03 6.973009810265e-03 0.000000000000e+00 7.105511732925e-03 -4.006887371396e-01 0.000000000000e+00 3.286540293167e-02 -5.110780897853e-02 0.000000000000e+00 -2.456105505988e-02 -3.385034842888e-01 0.000000000000e+00 2.018058460224e-02 -7.486578684387e-02 0.000000000000e+00 -1.310987457858e-02 -3.131143655588e-01 0.000000000000e+00 1.528558240503e-02 -1.480585866201e-01 0.000000000000e+00 -1.122940458630e-02 -2.420458276847e-01 0.000000000000e+00 3.219973950175e-02 -8.157134189869e-02 0.000000000000e+00 -2.371494379707e-02 -3.077828742033e-01 0.000000000000e+00 2.068881295324e-02 -8.523432760749e-03 0.000000000000e+00 -1.371213649968e-02 -3.911212801279e-01 0.000000000000e+00 1.644402694079e-02 -3.123293333424e-01 0.000000000000e+00 -2.429470022229e-02 -7.665162508346e-02 0.000000000000e+00 1.813744103685e-02 -3.352486769418e-01 0.000000000000e+00 -2.666442381465e-02 -5.487360157310e-02 0.000000000000e+00 2.114735061845e-02 -8.651012860717e-03 0.000000000000e+00 -1.545154971217e-02 -3.877632351530e-01 0.000000000000e+00 1.923783453716e-02 -3.718202068403e-01 0.000000000000e+00 -2.651251832075e-02 -1.813064798596e-02 0.000000000000e+00 1.676891887499e-02 -3.864504711609e-01 0.000000000000e+00 -2.163543306775e-02 -5.680721354063e-03 0.000000000000e+00 1.173709676941e-02 -2.356102812030e-01 0.000000000000e+00 -1.545741623451e-02 -1.547938703009e-01 0.000000000000e+00 1.445988283189e-02 -7.036356585366e-02 0.000000000000e+00 -8.929080560156e-03 -3.159272971120e-01 0.000000000000e+00 1.033481159272e-02 2.387649639050e-03 0.000000000000e+00 -7.392140196434e-03 -4.029371452052e-01 0.000000000000e+00 2.878035075870e-03 -3.460699463350e-01 0.000000000000e+00 -5.339699213061e-03 -3.582445668243e-02 0.000000000000e+00 2.009970727492e-02 -2.373148982060e-01 0.000000000000e+00 -2.446680595903e-02 -1.531329480176e-01 0.000000000000e+00 -3.002056483009e-02 -2.032716824377e-01 0.000000000000e+00 3.078646988873e-02 -1.861513073555e-01 0.000000000000e+00 -3.170794806711e-03 1.319990312614e-02 0.000000000000e+00 2.298917702682e-03 -4.053186121523e-01 0.000000000000e+00 2.372816339935e-02 -3.527310293183e-01 0.000000000000e+00 -3.154828352121e-02 -3.711479528799e-02 0.000000000000e+00 1.461299133958e-02 -3.899569299263e-01 0.000000000000e+00 -2.013274816181e-02 -7.104707475232e-03 0.000000000000e+00 2.153550985522e-02 -2.575252347041e-01 0.000000000000e+00 -2.760390608661e-02 -1.324642742822e-01 0.000000000000e+00 9.473992927074e-03 -2.995329225858e-01 0.000000000000e+00 -1.492732717320e-02 -8.754537324347e-02 0.000000000000e+00 -2.386785550967e-02 -2.757317434440e-01 0.000000000000e+00 3.101126656315e-02 -1.137385858027e-01 0.000000000000e+00 2.613715079216e-02 -3.590729817461e-02 0.000000000000e+00 -1.740177485717e-02 -3.562398480866e-01 0.000000000000e+00 -1.572090846282e-02 -3.883866351298e-01 0.000000000000e+00 2.057814514433e-02 -3.138025208894e-03 0.000000000000e+00 -5.007931591124e-04 -4.202965365671e-01 0.000000000000e+00 9.092794635360e-04 2.719366469153e-03 0.000000000000e+00 3.390152245802e-03 -1.717087810652e-01 0.000000000000e+00 -2.762878921091e-03 -2.176137199462e-01 0.000000000000e+00 2.263936524492e-02 -1.560917666333e-02 0.000000000000e+00 -1.344781500944e-02 -3.810003721392e-01 0.000000000000e+00 5.068727760134e-03 -2.824289079170e-01 0.000000000000e+00 -7.972058498481e-03 -1.044954234845e-01 0.000000000000e+00 1.286202521045e-02 -2.118738381436e-01 0.000000000000e+00 -1.455503241481e-02 -1.791511689822e-01 0.000000000000e+00 2.299710284314e-02 -1.215846027956e-01 0.000000000000e+00 -1.643746824236e-02 -2.682671445456e-01 0.000000000000e+00 1.253408762485e-02 -3.663515271350e-01 0.000000000000e+00 -2.154753366587e-02 -2.498425739567e-02 0.000000000000e+00 3.171569645589e-02 -1.376924424624e-01 0.000000000000e+00 -2.666498860942e-02 -2.517053246821e-01 0.000000000000e+00 9.930583816388e-03 -3.980742412847e-01 0.000000000000e+00 -1.303516924834e-02 1.621425335571e-03 0.000000000000e+00 1.122988992944e-02 8.721423065303e-03 0.000000000000e+00 -8.305398423790e-03 -4.006212314970e-01 0.000000000000e+00 3.281353421304e-02 -8.595926949728e-02 0.000000000000e+00 -2.443998681372e-02 -3.032115624254e-01 0.000000000000e+00 -2.149672659938e-02 -3.686086671256e-01 0.000000000000e+00 2.835510118225e-02 -2.183828031875e-02 0.000000000000e+00 2.669170203300e-02 -2.669354576859e-01 0.000000000000e+00 -3.282178646752e-02 -1.222594595349e-01 0.000000000000e+00 1.325918425209e-02 3.252916092848e-04 0.000000000000e+00 -8.509309443778e-03 -4.053677656287e-01 0.000000000000e+00 1.058044394250e-02 -2.555930875825e-01 0.000000000000e+00 -1.516840297381e-02 -1.338431069216e-01 0.000000000000e+00 1.049814537328e-02 -4.019936877974e-01 0.000000000000e+00 -1.720609970031e-02 -2.829981556059e-03 0.000000000000e+00 2.904570294001e-02 -8.346322864614e-02 0.000000000000e+00 -2.076330580464e-02 -3.060796129151e-01 0.000000000000e+00 2.445107831456e-02 -3.132668307822e-01 0.000000000000e+00 -3.301506900975e-02 -7.595504666903e-02 0.000000000000e+00 1.607839533538e-02 -3.833073070445e-01 0.000000000000e+00 -2.238345966414e-02 -7.166112591579e-03 0.000000000000e+00 9.456352756670e-03 -3.365595851542e-01 0.000000000000e+00 -1.595078464483e-02 -4.955873674899e-02 0.000000000000e+00 3.104330020147e-02 -4.368341000064e-02 0.000000000000e+00 -2.294567130133e-02 -3.471607735333e-01 0.000000000000e+00 1.603160727802e-02 -3.822159786580e-01 0.000000000000e+00 -2.344577777063e-02 -1.469043069495e-02 0.000000000000e+00 1.481631531084e-02 -3.792610649912e-01 0.000000000000e+00 -2.352122796002e-02 -1.735241480287e-02 0.000000000000e+00 2.393980697769e-02 -1.942765196078e-02 0.000000000000e+00 -1.519970780866e-02 -3.764513125727e-01 0.000000000000e+00 2.306603857426e-02 -1.718380161117e-01 0.000000000000e+00 -2.056746595464e-02 -2.188075481874e-01 0.000000000000e+00 4.839137582234e-03 -3.623882777614e-02 0.000000000000e+00 -2.609667475018e-03 -3.456017980251e-01 0.000000000000e+00 1.466243730644e-02 -3.409727417805e-01 0.000000000000e+00 -2.299660834200e-02 -4.835212763472e-02 0.000000000000e+00 2.292317679933e-03 9.964146138248e-03 0.000000000000e+00 -1.800302608085e-03 -4.034701411744e-01 0.000000000000e+00 2.745385355198e-03 -2.166309852791e-01 0.000000000000e+00 -3.342791091874e-03 -1.727074123761e-01 0.000000000000e+00 1.978300317854e-02 -3.768687798677e-01 0.000000000000e+00 -2.585026328352e-02 -1.420323358721e-02 0.000000000000e+00 1.185275023738e-02 -1.372361136263e-01 0.000000000000e+00 -8.216007191590e-03 -2.518738088380e-01 0.000000000000e+00 1.080102632096e-02 -3.588877623389e-01 0.000000000000e+00 -1.898900973489e-02 -2.942750165220e-02 0.000000000000e+00 2.281859743249e-02 -6.023136503586e-02 0.000000000000e+00 -1.484909342304e-02 -3.285273356083e-01 0.000000000000e+00 2.598686107513e-02 -2.911687217700e-01 0.000000000000e+00 -3.358376422156e-02 -9.782644215496e-02 0.000000000000e+00 1.345967742719e-02 -3.025767690513e-02 0.000000000000e+00 -7.327054083417e-03 -3.542496693979e-01 0.000000000000e+00 8.216677372248e-03 -4.034869624160e-01 0.000000000000e+00 -1.197105182761e-02 1.210819973254e-03 0.000000000000e+00 2.848299130063e-02 -2.812240193887e-02 0.000000000000e+00 -2.104683829556e-02 -3.644111219865e-01 0.000000000000e+00 -8.502269926165e-03 -4.121654832560e-01 0.000000000000e+00 1.589095498692e-02 -3.154944482225e-04 0.000000000000e+00 1.242070696616e-02 -1.198482655994e-02 0.000000000000e+00 -6.348614576729e-03 -3.711893774962e-01 0.000000000000e+00 2.201376552679e-02 -2.765975775217e-01 0.000000000000e+00 -2.939327697110e-02 -1.130716292996e-01 0.000000000000e+00 3.008256692936e-02 -5.359772771375e-02 0.000000000000e+00 -2.160964710589e-02 -3.369170390367e-01 0.000000000000e+00 -2.882943398606e-03 -3.666965327708e-01 0.000000000000e+00 5.685512718077e-03 -1.297955189955e-02 0.000000000000e+00 2.520981264772e-02 -1.513470094238e-01 0.000000000000e+00 -2.071255715928e-02 -2.390109531118e-01 0.000000000000e+00 5.601338835323e-03 -1.202774130968e-01 0.000000000000e+00 -3.642431611069e-03 -2.672655044204e-01 0.000000000000e+00 2.212710276905e-02 -3.642797970210e-01 0.000000000000e+00 -2.922201975081e-02 -2.728903736121e-02 0.000000000000e+00 9.810287919624e-03 7.276830743484e-03 0.000000000000e+00 -7.683816236251e-03 -4.004902226445e-01 0.000000000000e+00 1.780049433135e-02 -3.830578709219e-01 0.000000000000e+00 -2.319513964614e-02 -1.031896464205e-02 0.000000000000e+00 8.380759834881e-03 -2.203558785107e-01 0.000000000000e+00 7.077512993926e-03 -2.327620469486e-01 0.000000000000e+00 -1.032074530033e-02 -1.698548177389e-01 0.000000000000e+00 -9.480001437112e-03 -1.568560975766e-01 0.000000000000e+00 8.601605506495e-03 -2.669719418361e-01 0.000000000000e+00 -1.286711148440e-02 -1.215138713497e-01 0.000000000000e+00 3.494510811468e-03 -3.178092121095e-01 0.000000000000e+00 -5.917802988306e-03 -6.652916221797e-02 0.000000000000e+00 2.360276552524e-02 -3.407405077230e-01 0.000000000000e+00 -3.218663318766e-02 -4.833147268742e-02 0.000000000000e+00 3.253875230301e-02 -1.654178229742e-01 0.000000000000e+00 -3.001073923994e-02 -2.238130083965e-01 0.000000000000e+00 2.527302821774e-03 1.357534698015e-02 0.000000000000e+00 -1.808437799987e-03 -4.056225983895e-01 0.000000000000e+00 1.315386337184e-02 -3.177188779694e-01 0.000000000000e+00 -2.037105459926e-02 -7.024025907610e-02 0.000000000000e+00 1.611824893101e-02 -2.428639340745e-01 0.000000000000e+00 -2.098059859478e-02 -1.476918893369e-01 0.000000000000e+00 2.919718325918e-03 4.603552533943e-03 0.000000000000e+00 -1.988149474156e-03 -4.088488549681e-01 0.000000000000e+00 5.575667558499e-03 -4.182663591290e-01 0.000000000000e+00 -1.037088622865e-02 1.267414951532e-03 0.000000000000e+00 1.015110705614e-02 -1.703883446942e-01 0.000000000000e+00 -8.271162368593e-03 -2.198110897162e-01 0.000000000000e+00 1.835382699770e-02 -4.952160198490e-02 0.000000000000e+00 -1.110897228939e-02 -3.376391117806e-01 0.000000000000e+00 1.344520195037e-02 -2.888976109558e-01 0.000000000000e+00 -1.999591449526e-02 -9.976883910868e-02 0.000000000000e+00 2.515504956703e-02 -3.179110654404e-01 0.000000000000e+00 -3.363496891240e-02 -7.095590651945e-02 0.000000000000e+00 1.013693122852e-02 -3.879720720699e-01 0.000000000000e+00 -1.957466205667e-02 -5.894675577501e-03 0.000000000000e+00 2.903740113063e-02 -2.930119875400e-02 0.000000000000e+00 -2.091714163206e-02 -3.601592324669e-01 0.000000000000e+00 2.068453016049e-02 -3.612507156288e-01 0.000000000000e+00 -2.877392652027e-02 -2.823829623726e-02 0.000000000000e+00 3.265347798017e-02 -6.760505727333e-02 0.000000000000e+00 -2.411180076182e-02 -3.218968377616e-01 0.000000000000e+00 2.370009752317e-02 -3.760276530919e-02 0.000000000000e+00 -1.494135523131e-02 -3.531396326525e-01 0.000000000000e+00 1.307041373166e-02 -6.005990115496e-02 0.000000000000e+00 -7.820245247947e-03 -3.253996696920e-01 0.000000000000e+00 1.441643366999e-02 -3.623310026827e-01 0.000000000000e+00 -2.340794772806e-02 -2.964706591619e-02 0.000000000000e+00 1.811655076761e-02 -3.577536714046e-01 0.000000000000e+00 -2.673573515951e-02 -3.473763890858e-02 0.000000000000e+00 5.739043957300e-03 -1.781953231703e-01 0.000000000000e+00 -4.935015486847e-03 -2.115115273338e-01 0.000000000000e+00 1.286739746516e-02 -1.818337718090e-01 0.000000000000e+00 -1.153257201068e-02 -2.090776031608e-01 0.000000000000e+00 3.263011101994e-02 -5.495968139954e-02 0.000000000000e+00 -2.397731451235e-02 -3.339829952953e-01 0.000000000000e+00 2.801005628068e-02 -3.742073102825e-02 0.000000000000e+00 -1.958424028505e-02 -3.547184641732e-01 0.000000000000e+00 2.655766294622e-04 -4.156615128800e-01 0.000000000000e+00 -4.440935274792e-04 3.883950909681e-03 0.000000000000e+00 1.597381847027e-02 -3.667187709180e-01 0.000000000000e+00 -2.484000881296e-02 -2.695055591552e-02 0.000000000000e+00 2.090831046556e-02 -3.188605610878e-01 0.000000000000e+00 -2.935694788631e-02 -7.088184455163e-02 0.000000000000e+00 2.124899994958e-02 -7.872886035016e-03 0.000000000000e+00 -1.605621376937e-02 -3.870384968399e-01 0.000000000000e+00 2.403386998190e-02 -1.714746276274e-02 0.000000000000e+00 -1.608358230685e-02 -3.793672416937e-01 0.000000000000e+00 -8.609661831354e-04 5.610649318456e-03 0.000000000000e+00 6.386908587044e-04 -4.048566931094e-01 0.000000000000e+00 6.226306420933e-03 -3.179879187728e-01 0.000000000000e+00 -1.037070015994e-02 -6.715827870380e-02 0.000000000000e+00 5.312098592185e-03 -8.813990832931e-02 0.000000000000e+00 -3.267968195075e-03 -2.978466200188e-01 0.000000000000e+00 3.175779537502e-02 -4.127454438190e-02 0.000000000000e+00 -2.386315397635e-02 -3.490821785305e-01 0.000000000000e+00 1.539232216787e-02 -1.577634835182e-01 0.000000000000e+00 -1.186998729300e-02 -2.327467237508e-01 0.000000000000e+00 1.866632635164e-02 -3.704040083231e-01 0.000000000000e+00 -2.641386805977e-02 -2.380990873628e-02 0.000000000000e+00 -1.857831394258e-02 1.222781974411e-04 0.000000000000e+00 1.320497218802e-02 -3.910105489618e-01 0.000000000000e+00 1.764109579011e-02 -1.335669082472e-01 0.000000000000e+00 -1.248678019381e-02 -2.562020447807e-01 0.000000000000e+00 1.279330741176e-02 -3.904435611821e-01 0.000000000000e+00 -2.146472640956e-02 -9.761390585643e-03 0.000000000000e+00 2.935024067405e-02 -2.443548664244e-01 0.000000000000e+00 -3.354852248240e-02 -1.447450089204e-01 0.000000000000e+00 2.265331837025e-02 -1.021169842533e-01 0.000000000000e+00 -1.559980949272e-02 -2.870553518297e-01 0.000000000000e+00 5.395630374764e-03 5.077036113121e-03 0.000000000000e+00 -4.047361555856e-03 -4.034903153000e-01 0.000000000000e+00 2.250672925161e-02 -1.410966468024e-01 0.000000000000e+00 -1.706229931702e-02 -2.493081527985e-01 0.000000000000e+00 1.597883112739e-02 -1.883707145210e-01 0.000000000000e+00 -1.519017905112e-02 -2.028066280936e-01 0.000000000000e+00 1.565459940402e-02 -1.647960435082e-03 0.000000000000e+00 -1.122688927075e-02 -3.974677508643e-01 0.000000000000e+00 2.210918167730e-02 -3.665377024369e-01 0.000000000000e+00 -2.899044748737e-02 -2.425414200361e-02 0.000000000000e+00 1.826844992956e-02 -3.799072265646e-01 0.000000000000e+00 -2.439887421970e-02 -1.427238384225e-02 0.000000000000e+00 2.127477762561e-02 -3.064000014687e-01 0.000000000000e+00 -2.960422612507e-02 -8.315090527021e-02 0.000000000000e+00 1.859873531408e-02 -1.672855571658e-01 0.000000000000e+00 -1.556884797257e-02 -2.236615190954e-01 0.000000000000e+00 2.694415870717e-02 -6.161128886002e-02 0.000000000000e+00 -1.850907432930e-02 -3.281989192671e-01 0.000000000000e+00 1.299044768758e-02 -1.111739918255e-01 0.000000000000e+00 -8.520119810360e-03 -2.768055866392e-01 0.000000000000e+00 5.821139392346e-03 -3.480494862759e-01 0.000000000000e+00 -1.063974782961e-02 -3.535593326950e-02 0.000000000000e+00 -2.647867074924e-02 -2.998659093677e-01 0.000000000000e+00 3.426261956671e-02 -8.896050749341e-02 0.000000000000e+00 -1.623312981014e-02 -3.817534335076e-01 0.000000000000e+00 2.284306492236e-02 -8.577413053363e-03 0.000000000000e+00 -3.808135934123e-03 6.787849562294e-03 0.000000000000e+00 2.964910885326e-03 -4.026496063090e-01 0.000000000000e+00 1.423824996721e-02 1.524074100061e-03 0.000000000000e+00 -1.104643179853e-02 -3.964546860340e-01 0.000000000000e+00 2.406215330223e-03 -2.477978421250e-01 0.000000000000e+00 -3.512824625537e-03 -1.405456102195e-01 0.000000000000e+00 1.824864411267e-02 -2.170274432779e-01 0.000000000000e+00 -2.060473440995e-02 -1.738749045222e-01 0.000000000000e+00 1.906246705838e-02 -5.166095173291e-03 0.000000000000e+00 -1.163069979161e-02 -3.979970427782e-01 0.000000000000e+00 4.868410337537e-03 6.755579714711e-03 0.000000000000e+00 -3.801233974234e-03 -4.023096934079e-01 0.000000000000e+00 1.123309194740e-02 -8.800131284980e-02 0.000000000000e+00 -7.041739670949e-03 -2.984718960521e-01 0.000000000000e+00 1.067612993277e-02 -2.855447428851e-01 0.000000000000e+00 -1.621801780089e-02 -1.025576217478e-01 0.000000000000e+00 1.158459973111e-02 -3.959528649280e-01 0.000000000000e+00 -1.479430501440e-02 2.463186792825e-03 0.000000000000e+00 2.583966730201e-03 -3.677280388604e-01 0.000000000000e+00 -5.101864903517e-03 -1.160797511276e-02 0.000000000000e+00 1.373932353898e-02 -2.444286437276e-01 0.000000000000e+00 -1.845448904336e-02 -1.459465393873e-01 0.000000000000e+00 4.692296009499e-03 -6.559621869024e-02 0.000000000000e+00 -2.756804857335e-03 -3.185341126831e-01 0.000000000000e+00 4.059859029296e-03 -4.125242867708e-01 0.000000000000e+00 -6.577250636320e-03 3.329077621436e-03 0.000000000000e+00 5.906300106051e-03 -1.971070958730e-01 0.000000000000e+00 -6.025259691848e-03 -1.928352600144e-01 0.000000000000e+00 1.762295293128e-02 -2.860317381029e-01 0.000000000000e+00 -2.504479524681e-02 -1.034561269276e-01 0.000000000000e+00 2.359636925855e-03 -2.716454672215e-01 0.000000000000e+00 -3.675655112086e-03 -1.155172243981e-01 0.000000000000e+00 2.396149033416e-02 -2.892469977185e-01 0.000000000000e+00 -3.185481012810e-02 -1.000691222968e-01 0.000000000000e+00 1.073020105882e-02 -4.001617804488e-01 0.000000000000e+00 -1.619669162444e-02 -2.260257562918e-03 0.000000000000e+00 1.916650115415e-02 -1.116075959574e-01 0.000000000000e+00 -1.304928348692e-02 -2.773970444146e-01 0.000000000000e+00 8.987425567861e-03 -3.819949405628e-01 0.000000000000e+00 -1.747955673090e-02 -7.044337360600e-03 0.000000000000e+00 2.737412826492e-02 -1.996302077935e-02 0.000000000000e+00 -2.092120217666e-02 -3.719834264843e-01 0.000000000000e+00 -2.050920993941e-02 -4.465420324665e-03 0.000000000000e+00 1.086910225950e-02 -3.975854097663e-01 0.000000000000e+00 2.175394954905e-02 -3.501729959938e-01 0.000000000000e+00 -2.993195211918e-02 -4.122548550441e-02 0.000000000000e+00 1.809722634297e-02 -2.625876796745e-01 0.000000000000e+00 -2.455495916328e-02 -1.274999889970e-01 0.000000000000e+00 1.811192065686e-02 -3.075118724162e-01 0.000000000000e+00 -2.612525939624e-02 -8.178760335328e-02 0.000000000000e+00 9.884097433474e-03 -4.065974396858e-01 0.000000000000e+00 -1.852101721102e-02 -1.817647510411e-03 0.000000000000e+00 1.537730396248e-02 1.835785734136e-03 0.000000000000e+00 -1.203397156936e-02 -3.953155482053e-01 0.000000000000e+00 2.528503282735e-02 -1.390265590371e-01 0.000000000000e+00 -1.964550899045e-02 -2.512345939872e-01 0.000000000000e+00 1.245440246198e-02 -3.863761942304e-01 0.000000000000e+00 -2.182269607680e-02 -1.165620517422e-02 0.000000000000e+00 2.004364208163e-02 -3.348156862236e-01 0.000000000000e+00 -2.858620081762e-02 -5.555898372626e-02 0.000000000000e+00 1.279742433525e-02 -2.661725527525e-01 0.000000000000e+00 -1.846583192811e-02 -1.232400151285e-01 0.000000000000e+00 1.767604786763e-02 -7.452434955858e-03 0.000000000000e+00 -9.098635572277e-03 -3.818824339921e-01 0.000000000000e+00 2.531965716571e-03 -2.908445613860e-01 0.000000000000e+00 -4.078579350239e-03 -9.518057502266e-02 0.000000000000e+00 8.309019445027e-03 -1.424596054384e-01 0.000000000000e+00 -5.788819734255e-03 -2.464079685547e-01 0.000000000000e+00 2.573578623915e-02 -7.630182337827e-02 0.000000000000e+00 -1.767467834750e-02 -3.129502583975e-01 0.000000000000e+00 2.422340785086e-02 -3.438663788427e-01 0.000000000000e+00 -3.232734025061e-02 -4.615091834336e-02 0.000000000000e+00 5.537904624280e-03 -3.719020370437e-01 0.000000000000e+00 -1.088581926853e-02 -1.002362816351e-02 0.000000000000e+00 2.243899681990e-02 -2.941441378308e-02 0.000000000000e+00 -1.350239916406e-02 -3.618285920615e-01 0.000000000000e+00 2.450789498169e-02 -3.369355301035e-01 0.000000000000e+00 -3.297565386403e-02 -5.231713718095e-02 0.000000000000e+00 1.194907113479e-02 -3.955858170724e-01 0.000000000000e+00 -1.607425455731e-02 -1.635275103585e-03 0.000000000000e+00 6.258620309529e-03 -4.129534368926e-01 0.000000000000e+00 -1.077858068416e-02 1.691631919320e-03 0.000000000000e+00 5.611092916833e-03 -2.487741612461e-01 0.000000000000e+00 -8.129941376231e-03 -1.399623449165e-01 0.000000000000e+00 7.721291654042e-03 -2.038659393523e-01 0.000000000000e+00 -8.352795671621e-03 -1.864093027484e-01 0.000000000000e+00 7.331178026702e-03 -3.390141704315e-01 0.000000000000e+00 -1.278622660795e-02 -4.572942151046e-02 0.000000000000e+00 2.244866791505e-02 -2.064947529764e-01 0.000000000000e+00 -2.362905643651e-02 -1.840388845793e-01 0.000000000000e+00 2.439491239939e-02 -3.307240682774e-01 0.000000000000e+00 -3.284660000962e-02 -5.890114581400e-02 0.000000000000e+00 9.876736929800e-03 -3.753750402522e-02 0.000000000000e+00 -5.428225084766e-03 -3.457197317873e-01 0.000000000000e+00 1.097562479671e-02 1.664720882357e-03 0.000000000000e+00 -6.509056386944e-03 -4.116478437865e-01 0.000000000000e+00 -1.023358539809e-02 7.738665651084e-03 0.000000000000e+00 7.949834349917e-03 -4.005350478931e-01 0.000000000000e+00 1.516256181141e-02 -2.184227666988e-01 0.000000000000e+00 -1.763921102973e-02 -1.726058335606e-01 0.000000000000e+00 8.884998539006e-03 -3.631651096432e-01 0.000000000000e+00 -1.644038603830e-02 -2.340136209240e-02 0.000000000000e+00 2.018809854330e-02 -3.860941402183e-03 0.000000000000e+00 -1.075383818937e-02 -3.999127346640e-01 0.000000000000e+00 2.114791824124e-02 -8.444479623619e-03 0.000000000000e+00 -1.212696578387e-02 -3.923432352819e-01 0.000000000000e+00 1.630308781061e-02 -2.699519316962e-01 0.000000000000e+00 -2.291701723802e-02 -1.198353199533e-01 0.000000000000e+00 1.191101775964e-02 -2.236401692957e-01 0.000000000000e+00 -1.466576610459e-02 -1.671028745948e-01 0.000000000000e+00 2.280817880209e-02 -3.308202603745e-01 0.000000000000e+00 -3.127776912869e-02 -5.925749604459e-02 0.000000000000e+00 -2.962720375541e-02 -2.841471425805e-02 0.000000000000e+00 2.197166973580e-02 -3.613188402405e-01 0.000000000000e+00 3.013125467108e-02 -9.524416138885e-02 0.000000000000e+00 -2.198915504399e-02 -2.942696798691e-01 0.000000000000e+00 3.294639889989e-02 -5.160196920358e-02 0.000000000000e+00 -2.450954893240e-02 -3.376865966486e-01 0.000000000000e+00 1.878754344814e-02 -1.846581870871e-02 0.000000000000e+00 -1.015909489464e-02 -3.708988334389e-01 0.000000000000e+00 3.143802538680e-02 -6.877012719795e-02 0.000000000000e+00 -2.292379991204e-02 -3.209488907089e-01 0.000000000000e+00 6.957634077738e-03 -2.949103987268e-01 0.000000000000e+00 -1.104300264406e-02 -9.173200651423e-02 0.000000000000e+00 3.424434481258e-02 -1.214485580209e-01 0.000000000000e+00 -2.834400291658e-02 -2.675094711690e-01 0.000000000000e+00 8.412217780045e-03 -1.661172452671e-01 0.000000000000e+00 -6.625361081394e-03 -2.236697013636e-01 0.000000000000e+00 1.419746424374e-02 6.264401162667e-03 0.000000000000e+00 -1.008607728272e-02 -3.976156310696e-01 0.000000000000e+00 1.896391465794e-02 -9.022721816620e-02 0.000000000000e+00 -1.248575605958e-02 -2.978960426582e-01 0.000000000000e+00 1.900359765448e-02 -3.772236003113e-01 0.000000000000e+00 -2.538917581179e-02 -1.329479976904e-02 0.000000000000e+00 2.763409668496e-02 -1.135340723841e-01 0.000000000000e+00 -2.027578065388e-02 -2.762495443113e-01 0.000000000000e+00 2.155203457705e-02 -1.461934124905e-02 0.000000000000e+00 -1.207025401904e-02 -3.802914539215e-01 0.000000000000e+00 -1.531377178933e-02 4.963106828198e-04 0.000000000000e+00 1.185876757114e-02 -3.953468092250e-01 0.000000000000e+00 2.393880494195e-02 -1.095469954354e-02 0.000000000000e+00 -1.848228553640e-02 -3.815834026060e-01 0.000000000000e+00 1.106399020188e-02 -4.000091486269e-01 0.000000000000e+00 -1.913704681072e-02 -4.487136841348e-03 0.000000000000e+00 2.023000636753e-02 -1.876812026605e-01 0.000000000000e+00 -1.937568984467e-02 -2.032517190081e-01 0.000000000000e+00 6.396226018006e-03 -2.704149992030e-01 0.000000000000e+00 -9.772728658615e-03 -1.174259671824e-01 0.000000000000e+00 1.400026461244e-02 -2.802382868265e-01 0.000000000000e+00 -2.046786534129e-02 -1.088529571968e-01 0.000000000000e+00 2.885444070420e-02 -9.390286426513e-02 0.000000000000e+00 -2.076966731351e-02 -2.956420543782e-01 0.000000000000e+00 1.737046930006e-03 -2.311196307448e-01 0.000000000000e+00 -2.343631566261e-03 -1.577812083349e-01 0.000000000000e+00 2.108056663234e-03 -3.577925633087e-01 0.000000000000e+00 -4.089075226936e-03 -2.257362730183e-02 0.000000000000e+00 -3.597883887791e-03 8.997451573130e-03 0.000000000000e+00 2.833583277750e-03 -4.029101606743e-01 0.000000000000e+00 3.375400163990e-02 -7.109352179898e-02 0.000000000000e+00 -2.538100132936e-02 -3.177134531600e-01 0.000000000000e+00 2.121194104256e-03 -3.302439881405e-01 0.000000000000e+00 -3.739517857282e-03 -5.283469073368e-02 0.000000000000e+00 1.056170117781e-02 -1.821985301634e-01 0.000000000000e+00 -9.440910325230e-03 -2.083838989713e-01 0.000000000000e+00 9.921672961704e-03 -1.084459938556e-01 0.000000000000e+00 -6.391603793193e-03 -2.789395085463e-01 0.000000000000e+00 2.737749286341e-02 -1.751208606920e-01 0.000000000000e+00 -2.542832241678e-02 -2.149052770882e-01 0.000000000000e+00 2.759695970774e-02 -2.242245731495e-02 0.000000000000e+00 -2.079360312692e-02 -3.701309053545e-01 0.000000000000e+00 2.149698514330e-02 -3.617380718296e-01 0.000000000000e+00 -2.904290190374e-02 -3.044028590342e-02 0.000000000000e+00 1.746829471867e-02 -3.238873973421e-01 0.000000000000e+00 -2.573047480711e-02 -6.553603238564e-02 0.000000000000e+00 1.954427559729e-02 -3.595124063757e-01 0.000000000000e+00 -2.780577261057e-02 -3.319416692901e-02 0.000000000000e+00 4.021403637182e-04 1.218500264509e-02 0.000000000000e+00 -3.050210199172e-04 -4.048055099643e-01 0.000000000000e+00 2.398166478858e-02 -3.332852422315e-01 0.000000000000e+00 -3.262493828044e-02 -5.563008876615e-02 0.000000000000e+00 2.470831584757e-02 -3.267716895121e-01 0.000000000000e+00 -3.326168351680e-02 -6.253578130904e-02 0.000000000000e+00 1.443382540942e-02 -1.201682105920e-01 0.000000000000e+00 -9.699038847918e-03 -2.684910801577e-01 0.000000000000e+00 2.550842015570e-02 -1.888622867027e-02 0.000000000000e+00 -1.846279158094e-02 -3.757161434613e-01 0.000000000000e+00 2.187921357366e-02 -1.342379774118e-01 0.000000000000e+00 -1.605045007072e-02 -2.559616732431e-01 0.000000000000e+00 1.721319235011e-02 -3.190849237660e-03 0.000000000000e+00 -1.095543137999e-02 -4.000990323738e-01 0.000000000000e+00 -3.439898038182e-02 -1.072402782525e-01 0.000000000000e+00 2.758400530819e-02 -2.816452697805e-01 0.000000000000e+00 2.048774666528e-02 -4.912297881369e-03 0.000000000000e+00 -1.070044507718e-02 -3.935211869570e-01 0.000000000000e+00 -1.130097378746e-02 9.147443040333e-03 0.000000000000e+00 8.072359742991e-03 -4.007767556558e-01 0.000000000000e+00 -3.411138992758e-02 -8.302704430462e-02 0.000000000000e+00 2.606000526554e-02 -3.058024092007e-01 0.000000000000e+00 4.444521386157e-03 -2.097454890227e-01 0.000000000000e+00 -5.095926759991e-03 -1.799069200311e-01 0.000000000000e+00 1.422221416172e-02 -3.916647445029e-01 0.000000000000e+00 -1.858222082650e-02 -1.055680522280e-04 0.000000000000e+00 2.106012970913e-02 -5.233597088330e-02 0.000000000000e+00 -1.321460406122e-02 -3.359629976251e-01 0.000000000000e+00 -1.955196286332e-03 -2.322484053546e-01 0.000000000000e+00 2.655059374528e-03 -1.566332385502e-01 0.000000000000e+00 -2.983975726689e-02 -2.401792202196e-01 0.000000000000e+00 3.367530293727e-02 -1.488958723751e-01 0.000000000000e+00 2.001790715765e-02 -2.919427599157e-02 0.000000000000e+00 -1.153222888607e-02 -3.600059071333e-01 0.000000000000e+00 3.043700865881e-02 -2.167076905427e-01 0.000000000000e+00 -3.235603237124e-02 -1.725276956662e-01 0.000000000000e+00 -4.138440428613e-03 1.742206881630e-03 0.000000000000e+00 2.207727267855e-03 -4.221615683703e-01 0.000000000000e+00 6.866849857473e-03 1.226629011550e-02 0.000000000000e+00 -4.867703917038e-03 -4.041173319396e-01 0.000000000000e+00 1.215872532877e-02 -3.773958986638e-01 0.000000000000e+00 -2.156755742104e-02 -1.658370179138e-02 0.000000000000e+00 1.986867083417e-02 -7.026158676683e-03 0.000000000000e+00 -1.392636932686e-02 -3.914525262120e-01 0.000000000000e+00 1.980321856624e-02 -3.705008835870e-01 0.000000000000e+00 -2.700547283104e-02 -2.300726390718e-02 0.000000000000e+00 1.651776760855e-02 -8.074861922329e-02 0.000000000000e+00 -1.053468981755e-02 -3.064765585870e-01 0.000000000000e+00 2.481926966546e-02 -3.132842513056e-01 0.000000000000e+00 -3.336899854026e-02 -7.577813677344e-02 0.000000000000e+00 1.691043075822e-02 -1.756284488744e-03 0.000000000000e+00 -1.292181220568e-02 -3.937046964156e-01 0.000000000000e+00 2.317726680630e-02 -2.326057066413e-01 0.000000000000e+00 -2.692258418010e-02 -1.575318446355e-01 0.000000000000e+00 1.405989694426e-02 -1.420171975883e-01 0.000000000000e+00 -1.001260263475e-02 -2.476425175953e-01 0.000000000000e+00 -1.143372419748e-03 4.993448212207e-03 0.000000000000e+00 8.043215143404e-04 -4.074316044669e-01 0.000000000000e+00 4.001397327290e-03 4.057698662930e-03 0.000000000000e+00 -2.552013665124e-03 -4.118554103954e-01 0.000000000000e+00 1.404038511345e-02 -1.980813578679e-01 0.000000000000e+00 -1.430831421199e-02 -1.930813984720e-01 0.000000000000e+00 2.317848090776e-02 -3.034278989376e-01 0.000000000000e+00 -3.158123314521e-02 -8.597972542328e-02 0.000000000000e+00 2.356903620727e-02 -3.240617690247e-01 0.000000000000e+00 -3.208313098588e-02 -6.563917407801e-02 0.000000000000e+00 1.930873186840e-03 -1.862886023725e-01 0.000000000000e+00 -1.782818784088e-03 -2.031428101541e-01 0.000000000000e+00 -7.894161058081e-03 4.882626422307e-03 0.000000000000e+00 6.064595912034e-03 -4.014844699124e-01 0.000000000000e+00 -2.211772651406e-02 -3.487436456941e-01 0.000000000000e+00 3.069791904523e-02 -4.039801575470e-02 0.000000000000e+00 2.355822080442e-02 -3.504158952054e-01 0.000000000000e+00 -3.141909220664e-02 -4.020034531705e-02 0.000000000000e+00 6.802060786827e-03 -3.609683732809e-01 0.000000000000e+00 -1.288285557881e-02 -2.297358623860e-02 0.000000000000e+00 1.057056965725e-02 2.665716377312e-03 0.000000000000e+00 -7.845262689463e-03 -4.011232484402e-01 0.000000000000e+00 1.074662137697e-02 -2.032313130171e-01 0.000000000000e+00 -1.147842286214e-02 -1.875952256015e-01 0.000000000000e+00 7.848110894825e-03 -3.083732957585e-01 0.000000000000e+00 -1.265561003938e-02 -7.783746155532e-02 0.000000000000e+00 3.130193647023e-02 -5.772982054605e-02 0.000000000000e+00 -2.285144927491e-02 -3.324094491561e-01 0.000000000000e+00 1.162901773126e-02 -3.971891927899e-01 0.000000000000e+00 -1.666732475442e-02 -2.810339909084e-03 0.000000000000e+00 5.090660164514e-03 -2.260045283266e-01 0.000000000000e+00 -6.601733011648e-03 -1.634428976562e-01 0.000000000000e+00 3.317019232625e-02 -5.781726444847e-02 0.000000000000e+00 -2.456248829482e-02 -3.312538758288e-01 0.000000000000e+00 1.336346640582e-02 -1.989832584158e-02 0.000000000000e+00 -6.994090707536e-03 -3.642769581893e-01 0.000000000000e+00 -1.232793836391e-02 1.505864848013e-03 0.000000000000e+00 9.134566898710e-03 -3.997390659158e-01 0.000000000000e+00 2.546031553767e-02 -2.066366521755e-02 0.000000000000e+00 -1.778366599424e-02 -3.743779254328e-01 0.000000000000e+00 1.251779135556e-02 8.436505143404e-04 0.000000000000e+00 -8.606835391944e-03 -4.028931265738e-01 0.000000000000e+00 3.641899627034e-03 -1.080566281834e-01 0.000000000000e+00 -2.305872748140e-03 -2.786947983160e-01 0.000000000000e+00 3.133107582342e-02 -1.033792680643e-01 0.000000000000e+00 -2.355185659162e-02 -2.860209749286e-01 0.000000000000e+00 -1.769274409683e-02 -3.741272611136e-01 0.000000000000e+00 2.517674248227e-02 -1.578555599025e-02 0.000000000000e+00 3.882308665475e-03 -2.269605082637e-02 0.000000000000e+00 -2.001410061074e-03 -3.576443385119e-01 0.000000000000e+00 1.262140125878e-02 -1.592964550263e-01 0.000000000000e+00 -9.666237427787e-03 -2.308977988276e-01 0.000000000000e+00 2.453208150550e-02 -1.097005008197e-02 0.000000000000e+00 -1.878572020237e-02 -3.802386370262e-01 0.000000000000e+00 1.559854232120e-02 -3.802673502587e-01 0.000000000000e+00 -2.373368477404e-02 -1.658393123039e-02 0.000000000000e+00 1.102144160761e-02 -3.467803824974e-01 0.000000000000e+00 -1.865366523555e-02 -4.068750594267e-02 0.000000000000e+00 1.109254540151e-02 -5.159137606240e-02 0.000000000000e+00 -6.418782768054e-03 -3.328699919794e-01 0.000000000000e+00 3.167739757462e-02 -3.813097919286e-02 0.000000000000e+00 -2.388031379230e-02 -3.518872914834e-01 0.000000000000e+00 2.304964402148e-02 -4.746610166800e-02 0.000000000000e+00 -1.468076459209e-02 -3.419420098997e-01 0.000000000000e+00 2.185641446790e-02 -2.885459291114e-01 0.000000000000e+00 -2.981056306964e-02 -1.010108160747e-01 0.000000000000e+00 1.659962939614e-02 -3.420200021280e-01 0.000000000000e+00 -2.517831021364e-02 -4.818997614604e-02 0.000000000000e+00 7.089936229388e-03 3.728810616376e-03 0.000000000000e+00 -4.946817328281e-03 -4.061612206825e-01 0.000000000000e+00 2.537435765520e-02 -2.633031078543e-02 0.000000000000e+00 -1.671067619957e-02 -3.677223732179e-01 0.000000000000e+00 -8.008036554603e-03 3.143962758046e-03 0.000000000000e+00 5.279768666852e-03 -4.084225551182e-01 0.000000000000e+00 1.482722126090e-02 -1.692577787922e-01 0.000000000000e+00 -1.222843465448e-02 -2.215644155831e-01 0.000000000000e+00 9.089790861173e-03 -2.089261893497e-01 0.000000000000e+00 -1.022707149995e-02 -1.815863886171e-01 0.000000000000e+00 -1.747785169122e-02 -1.988150475647e-01 0.000000000000e+00 1.783774820085e-02 -1.923048719576e-01 0.000000000000e+00 -1.848884485783e-03 -3.308370045769e-01 0.000000000000e+00 3.267878318582e-03 -5.214215513079e-02 0.000000000000e+00 8.942021407197e-03 2.623981227902e-03 0.000000000000e+00 -5.614316281974e-03 -4.102968566204e-01 0.000000000000e+00 -4.593653410320e-03 -3.727344151940e-01 0.000000000000e+00 9.041026781317e-03 -7.821752771702e-03 0.000000000000e+00 1.271352613808e-02 -3.945498066560e-01 0.000000000000e+00 -1.944405135153e-02 -6.346977285784e-03 0.000000000000e+00 1.634780960713e-02 -5.987159161680e-02 0.000000000000e+00 -9.992858416637e-03 -3.266212681803e-01 0.000000000000e+00 2.282571290193e-02 -3.108550871371e-01 0.000000000000e+00 -3.130127662388e-02 -7.866678346862e-02 0.000000000000e+00 -5.406905631391e-03 7.484839529367e-03 0.000000000000e+00 4.250939267341e-03 -4.021256236307e-01 0.000000000000e+00 -2.345956525025e-02 -2.447006943712e-01 0.000000000000e+00 2.827632099545e-02 -1.452399107970e-01 0.000000000000e+00 1.980260847195e-02 -2.927711283067e-01 0.000000000000e+00 -2.771770730729e-02 -9.677415924679e-02 0.000000000000e+00 -1.545246248579e-02 -2.348349361815e-05 0.000000000000e+00 8.151354953015e-03 -4.143560976860e-01 0.000000000000e+00 1.572028103820e-02 -3.857321380415e-01 0.000000000000e+00 -2.225398962008e-02 -1.128035769596e-02 0.000000000000e+00 1.446353789992e-02 -3.116885532729e-01 0.000000000000e+00 -2.187058486759e-02 -7.674828192828e-02 0.000000000000e+00 2.532275535760e-02 -1.172521429597e-01 0.000000000000e+00 -1.830031615922e-02 -2.725984961157e-01 0.000000000000e+00 1.069248676825e-02 7.972211682268e-03 0.000000000000e+00 -8.227793806438e-03 -4.004677833000e-01 0.000000000000e+00 2.390219833268e-02 -2.607724839855e-01 0.000000000000e+00 -2.999137164849e-02 -1.288880413521e-01 0.000000000000e+00 1.760472306224e-02 -3.841506259033e-01 0.000000000000e+00 -2.274470409260e-02 -8.553513327962e-03 0.000000000000e+00 2.104029046243e-02 -1.658405608389e-01 0.000000000000e+00 -1.784657180605e-02 -2.249895388679e-01 0.000000000000e+00 1.109314268331e-02 -2.442249819093e-01 0.000000000000e+00 -1.525072602176e-02 -1.457747947979e-01 0.000000000000e+00 5.535491773677e-03 1.832460396337e-03 0.000000000000e+00 -2.970098432786e-03 -4.212248766515e-01 0.000000000000e+00 5.099601682853e-03 7.931843605092e-03 0.000000000000e+00 -4.016130868908e-03 -4.022911775214e-01 0.000000000000e+00 2.001967678373e-02 -2.839108314183e-01 0.000000000000e+00 -2.768988894693e-02 -1.057540985523e-01 0.000000000000e+00 -1.278487959237e-02 6.676873440883e-03 0.000000000000e+00 9.742344235685e-03 -3.988440396249e-01 0.000000000000e+00 2.261891648152e-02 -7.675095559470e-02 0.000000000000e+00 -1.506368891056e-02 -3.118631959269e-01 0.000000000000e+00 -2.697471484651e-02 -1.728017674219e-01 0.000000000000e+00 2.476963440245e-02 -2.172922231759e-01 0.000000000000e+00 1.808916268707e-02 -2.416277363171e-01 0.000000000000e+00 -2.290775758945e-02 -1.489099476813e-01 0.000000000000e+00 1.022230318020e-02 -2.291548100916e-01 0.000000000000e+00 -1.316749711925e-02 -1.611925955762e-01 0.000000000000e+00 1.859708656071e-02 -3.853199920710e-02 0.000000000000e+00 -1.090151497351e-02 -3.489842488962e-01 0.000000000000e+00 1.997604759433e-02 -3.750442050395e-01 0.000000000000e+00 -2.627120121075e-02 -1.770214680987e-02 0.000000000000e+00 1.846388537386e-02 -3.464869791507e-01 0.000000000000e+00 -2.710652907378e-02 -4.464613728923e-02 0.000000000000e+00 -7.424588567775e-03 1.214120379299e-02 0.000000000000e+00 5.180946379098e-03 -4.038909794401e-01 0.000000000000e+00 9.196352618699e-03 -1.515664231316e-01 0.000000000000e+00 -6.677471942655e-03 -2.378029941921e-01 0.000000000000e+00 2.276132498019e-02 -3.416926131387e-01 0.000000000000e+00 -3.105800627714e-02 -4.892656024675e-02 0.000000000000e+00 -2.527979605374e-02 -3.060439995356e-01 0.000000000000e+00 3.356941660760e-02 -8.292533586999e-02 0.000000000000e+00 3.252369788099e-02 -2.029376680793e-01 0.000000000000e+00 -3.323197111788e-02 -1.860952007529e-01 0.000000000000e+00 2.363779544646e-02 -1.074062140072e-01 0.000000000000e+00 -1.653544449086e-02 -2.820479713940e-01 0.000000000000e+00 2.259238356211e-02 -2.134994576473e-02 0.000000000000e+00 -1.334954382548e-02 -3.722415964874e-01 0.000000000000e+00 7.634004597683e-03 -3.284539174298e-01 0.000000000000e+00 -1.288032704120e-02 -5.680199623586e-02 0.000000000000e+00 2.917913821188e-02 -2.586585718303e-01 0.000000000000e+00 -3.439653882739e-02 -1.302861895764e-01 0.000000000000e+00 3.168221272261e-02 -1.226659129273e-01 0.000000000000e+00 -2.536285939730e-02 -2.667167709005e-01 0.000000000000e+00 1.086461488142e-02 -3.145427840289e-01 0.000000000000e+00 -1.719764127415e-02 -7.256818296524e-02 0.000000000000e+00 -5.187678112986e-03 4.621371735458e-03 0.000000000000e+00 3.759698234794e-03 -4.051249284497e-01 0.000000000000e+00 1.641759303062e-02 3.192145257600e-03 0.000000000000e+00 -1.231849596781e-02 -3.948102227321e-01 0.000000000000e+00 1.867690320156e-02 -1.374405176151e-03 0.000000000000e+00 -9.826874812863e-03 -4.076277093839e-01 0.000000000000e+00 1.991553273818e-02 -2.659520731338e-01 0.000000000000e+00 -2.666787021389e-02 -1.240267660191e-01 0.000000000000e+00 1.406695162809e-02 -1.881006806083e-01 0.000000000000e+00 -1.328447505463e-02 -2.030145345437e-01 0.000000000000e+00 1.521071563969e-02 -3.007841658128e-01 0.000000000000e+00 -2.252654517212e-02 -8.798803535243e-02 0.000000000000e+00 2.560822475576e-02 -5.705539063685e-02 0.000000000000e+00 -1.718968460106e-02 -3.326748135980e-01 0.000000000000e+00 -9.809823447764e-03 2.754557809947e-03 0.000000000000e+00 7.077885922480e-03 -4.029141745346e-01 0.000000000000e+00 1.490042155318e-02 -3.516940614909e-01 0.000000000000e+00 -2.361459219638e-02 -3.883001303048e-02 0.000000000000e+00 1.061187142587e-02 -3.959438788105e-01 0.000000000000e+00 -2.042298290699e-02 -3.568156669470e-03 0.000000000000e+00 2.175900428453e-02 -3.524206703067e-01 0.000000000000e+00 -3.023301672149e-02 -3.681139232116e-02 0.000000000000e+00 1.110695664577e-02 -1.917810019167e-01 0.000000000000e+00 -1.076906537050e-02 -1.990457733350e-01 0.000000000000e+00 2.900500196293e-02 -4.666068260549e-02 0.000000000000e+00 -2.051853978213e-02 -3.444345153285e-01 0.000000000000e+00 2.040150242271e-03 -2.010825032499e-01 0.000000000000e+00 -2.167446897546e-03 -1.883774350692e-01 0.000000000000e+00 1.497532916231e-02 -7.288148225541e-03 0.000000000000e+00 -7.657087416089e-03 -3.782282674914e-01 0.000000000000e+00 -3.429194475108e-03 5.890743943952e-03 0.000000000000e+00 2.610895241812e-03 -4.034347127837e-01 0.000000000000e+00 2.878782080287e-03 -6.453588210054e-03 0.000000000000e+00 -1.457082054845e-03 -3.716937321799e-01 0.000000000000e+00 2.557263600874e-02 -1.291319811581e-01 0.000000000000e+00 -1.917329296510e-02 -2.609733681048e-01 0.000000000000e+00 2.857063014984e-02 -5.525460591512e-02 0.000000000000e+00 -2.002788971512e-02 -3.351398407880e-01 0.000000000000e+00 1.792186602445e-02 -2.705349809522e-01 0.000000000000e+00 -2.480235754550e-02 -1.193517552920e-01 0.000000000000e+00 2.350003194788e-03 -3.060345983662e-01 0.000000000000e+00 -3.893702649013e-03 -7.894282740183e-02 0.000000000000e+00 2.787578836858e-02 -7.740050671965e-02 0.000000000000e+00 -1.960423779101e-02 -3.121237696818e-01 0.000000000000e+00 2.020867523351e-02 -1.280578428840e-01 0.000000000000e+00 -1.434973693225e-02 -2.617791543780e-01 0.000000000000e+00 4.045117775183e-03 -3.900131801485e-01 0.000000000000e+00 -4.118664166106e-03 -3.907169116325e-01 0.000000000000e+00 -1.883383682724e-03 -4.329275425649e-01 0.000000000000e+00 5.275090333058e-03 -4.308007534886e-01 0.000000000000e+00 9.859255894542e-03 -4.000944619634e-01 0.000000000000e+00 1.136906671106e-02 -4.124645180266e-01 0.000000000000e+00 -8.357785765563e-03 -4.260098789435e-01 0.000000000000e+00 -9.746862770045e-03 -3.996414859619e-01 0.000000000000e+00 -1.128120580141e-02 -4.131453683574e-01 0.000000000000e+00 9.699042920888e-03 -4.224762450840e-01 0.000000000000e+00 -7.884029834548e-03 -3.967075295291e-01 0.000000000000e+00 6.866487907656e-03 -3.912124947007e-01 0.000000000000e+00 1.792361105905e-03 -4.308954460630e-01 0.000000000000e+00 -5.855822238412e-03 -4.322934318892e-01 0.000000000000e+00 1.034443917049e-02 -4.026744643151e-01 0.000000000000e+00 -1.121618986497e-02 -4.221217633088e-01 0.000000000000e+00 -1.202993625151e-02 -4.087960759458e-01 0.000000000000e+00 8.492775809585e-03 -4.297662309619e-01 0.000000000000e+00 -5.149378931455e-03 -4.277107056527e-01 0.000000000000e+00 1.248826618873e-02 -4.095774036046e-01 0.000000000000e+00 -9.744058936151e-03 -4.166264433671e-01 0.000000000000e+00 -1.028753318348e-02 -4.022259828947e-01 0.000000000000e+00 2.094293518398e-03 -4.352706418509e-01 0.000000000000e+00 7.216510373143e-03 -4.248347610056e-01 0.000000000000e+00 9.369255133357e-03 -4.000105307893e-01 0.000000000000e+00 -7.329239154676e-03 -3.901861732261e-01 0.000000000000e+00 1.015496036288e-02 -4.145587524262e-01 0.000000000000e+00 1.205101538814e-02 -4.206599807458e-01 0.000000000000e+00 2.339447892499e-03 -3.845309779057e-01 0.000000000000e+00 2.754287607938e-03 -3.942241463948e-01 0.000000000000e+00 -2.951687370308e-03 -3.939564191397e-01 0.000000000000e+00 -2.142629101326e-03 -3.840144832991e-01 0.000000000000e+00 6.170866636790e-03 -3.959485907765e-01 0.000000000000e+00 -4.893912366601e-03 -3.865968443611e-01 0.000000000000e+00 4.461952650265e-03 -3.849258326578e-01 0.000000000000e+00 -5.939036207646e-03 -3.965848694041e-01 0.000000000000e+00 -1.785825308430e-03 -4.291314442447e-01 0.000000000000e+00 6.478764719754e-03 -4.338333381071e-01 0.000000000000e+00 -2.241200376651e-03 -4.360768361131e-01 0.000000000000e+00 5.021549921950e-03 -4.267880993207e-01 0.000000000000e+00 1.194942921636e-02 -4.053456731940e-01 0.000000000000e+00 -7.848847016642e-03 -4.216519564048e-01 0.000000000000e+00 8.917440923153e-03 -3.939796126502e-01 0.000000000000e+00 -9.994558223769e-03 -4.296344160194e-01 0.000000000000e+00 -1.042486927920e-02 -4.078853489235e-01 0.000000000000e+00 -8.958086778460e-03 -3.939183470271e-01 0.000000000000e+00 -1.175604579590e-02 -4.049460894836e-01 0.000000000000e+00 -1.355944669759e-02 -4.175987277541e-01 0.000000000000e+00 1.045724340523e-02 -4.074595561509e-01 0.000000000000e+00 1.354385235337e-02 -4.169037911954e-01 0.000000000000e+00 1.682827732816e-03 -3.891346788471e-01 0.000000000000e+00 -1.682622228958e-03 -3.891313434836e-01 0.000000000000e+00 
        </DataArray>
      </PointData>
      <CellData>
        <DataArray type="Int32" Name="MatGroup" format="ascii">
          1 1 1 1 1 1 1 1 1 1 1 1 1 1 1 1 1 1 1 1 1 1 1 1 1 1 1 1 1 1 1 1 1 1 1 1 1 1 1 1 1 1 1 1 1 1 1 1 1 1 1 1 1 1 1 1 1 1 1 1 1 1 1 1 1 1 1 1 1 1 1 1 1 1 1 1 1 1 1 1 1 1 1 1 1 1 1 1 1 1 1 1 1 1 1 1 1 1 1 1 1 1 1 1 1 1 1 1 1 1 1 1 1 1 1 1 1 1 1 1 1 1 1 1 1 1 1 1 1 1 1 1 1 1 1 1 1 1 1 1 1 1 1 1 1 1 1 1 1 1 1 1 1 1 1 1 1 1 1 1 1 1 1 1 1 1 1 1 1 1 1 1 1 1 1 1 1 1 1 1 1 1 1 1 1 1 1 1 1 1 1 1 1 1 1 1 1 1 1 1 1 1 1 1 1 1 1 1 1 1 1 1 1 1 1 1 1 1 1 1 1 1 1 1 1 1 1 1 1 1 1 1 1 1 1 1 1 1 1 1 1 1 1 1 1 1 1 1 1 1 1 1 1 1 1 1 1 1 1 1 1 1 1 1 1 1 1 1 1 1 1 1 1 1 1 1 1 1 1 1 1 1 1 1 1 1 1 1 1 1 1 1 1 1 1 1 1 1 1 1 1 1 1 1 1 1 1 1 1 1 1 1 1 1 1 1 1 1 1 1 1 1 1 1 1 1 1 1 1 1 1 1 1 1 1 1 1 1 1 1 1 1 1 1 1 1 1 1 1 1 1 1 1 1 1 1 1 1 1 1 1 1 1 1 1 1 1 1 1 1 1 1 1 1 1 1 1 1 1 1 1 1 1 1 1 1 1 1 1 1 1 1 1 1 1 1 1 1 1 1 1 1 1 1 1 1 1 1 1 1 1 1 1 1 1 1 1 1 1 1 1 1 1 1 1 1 1 1 1 1 1 1 1 1 1 1 1 1 1 1 1 1 1 1 1 1 1 1 1 1 1 1 1 1 1 1 1 1 1 1 1 1 1 1 1 1 1 1 1 1 1 1 1 1 1 1 1 1 1 1 1 1 1 1 1 1 1 1 1 1 1 1 1 1 1 1 1 1 1 1 1 1 1 1 1 1 1 1 1 1 1 1 1 1 1 1 1 1 1 1 1 1 1 1 1 1 1 1 1 1 1 1 1 1 1 1 1 1 1 1 1 1 1 1 1 1 1 1 1 1 1 1 1 1 1 1 1 1 1 1 1 1 1 1 1 1 1 1 1 1 1 1 1 1 1 1 1 1 1 1 1 1 1 1 1 1 1 1 1 1 1 1 1 1 1 1 1 1 1 1 1 1 1 1 1 1 1 1 1 1 1 1 1 1 1 1 1 1 1 1 1 1 1 1 1 1 1 1 1 1 1 1 1 1 1 1 1 1 1 1 1 1 1 1 1 1 1 1 1 1 1 1 1 1 1 1 1 1 1 1 1 1 1 1 1 1 1 1 1 1 1 1 1 1 1 1 1 1 1 1 1 1 1 1 1 1 1 1 1 1 1 1 1 1 1 1 1 1 1 1 1 1 1 1 1 1 1 1 1 1 1 1 1 1 1 1 1 1 1 1 1 1 1 1 1 1 1 1 1 1 1 1 1 1 1 1 1 1 1 1 1 1 1 1 1 1 1 1 1 1 1 1 1 1 1 1 1 1 1 1 1 1 1 1 1 1 1 1 1 1 1 1 1 1 1 1 1 1 1 1 1 1 1 1 1 1 1 1 1 1 1 1 1 1 1 1 1 1 1 1 1 1 1 1 1 1 1 1 1 1 1 1 1 1 1 1 1 1 1 1 1 1 1 1 1 1 1 1 1 1 1 1 1 1 1 1 1 1 1 1 1 1 1 1 1 1 1 1 1 1 1 1 1 1 1 1 1 1 1 1 1 1 1 1 1 1 1 1 1 1 1 1 1 1 1 1 1 1 1 1 1 1 1 1 1 1 1 1 1 1 1 1 1 1 1 1 1 1 1 1 1 1 1 1 1 1 1 1 1 1 1 1 1 1 1 1 1 1 1 1 1 1 1 1 1 1 1 1 1 1 1 1 1 1 1 1 1 1 1 1 1 1 1 1 1 1 1 1 1 1 1 1 1 1 1 1 1 1 1 1 1 1 1 1 1 1 1 1 1 1 1 1 1 1 1 1 1 1 1 1 1 1 1 1 1 1 1 1 1 1 1 1 1 1 1 1 1 1 1 1 1 1 1 1 1 1 1 1 1 1 1 1 1 1 1 1 1 1 1 1 1 1 1 1 1 1 1 1 1 1 1 1 1 1 1 1 1 1 1 1 1 1 1 1 1 1 1 1 1 1 1 1 1 1 1 1 1 1 1 1 1 1 1 1 1 1 1 1 1 1 1 1 1 1 1 1 1 1 1 1 1 1 1 1 1 1 1 1 1 1 1 1 1 1 1 1 1 1 1 1 1 1 1 1 1 1 1 1 1 1 1 1 1 1 1 1 1 1 1 1 1 1 1 1 1 1 1 1 1 1 1 1 1 1 1 1 1 1 1 1 1 1 1 1 1 1 1 1 1 1 1 1 1 1 1 1 1 1 1 1 1 1 1 1 1 1 1 1 1 1 1 1 1 1 1 1 1 1 1 1 1 1 1 1 1 1 1 1 1 1 1 1 1 1 1 1 1 1 1 1 1 1 1 1 1 1 1 1 1 1 1 1 1 1 1 1 1 1 1 1 1 1 1 1 1 1 1 1 1 1 1 1 1 1 1 1 1 1 1 1 1 1 1 1 1 1 1 1 1 1 1 1 1 1 1 1 1 1 1 1 1 1 1 1 1 1 1 1 1 1 1 1 1 1 1 1 1 1 1 1 1 1 1 1 1 1 1 1 1 1 1 1 1 1 1 1 1 1 1 1 1 1 1 1 1 1 1 1 1 1 1 1 1 1 1 1 1 1 1 1 1 1 1 1 1 1 1 1 1 1 1 1 1 1 1 1 1 1 1 1 1 1 1 1 1 1 1 1 1 1 1 1 1 1 1 1 1 1 1 1 1 1 1 1 1 1 1 1 1 1 1 1 1 1 1 1 1 1 1 1 1 1 1 1 1 1 1 1 1 1 1 1 1 1 1 1 1 1 1 1 1 1 1 1 1 1 1 1 1 1 1 1 1 1 1 1 1 1 1 1 1 1 1 1 1 1 1 1 1 1 1 1 1 1 1 1 1 1 1 1 1 1 1 1 1 1 1 1 1 1 1 1 1 1 1 1 1 1 1 1 1 1 1 1 1 1 1 1 1 1 1 1 1 1 1 1 1 1 1 1 1 1 1 1 1 1 1 1 1 1 1 1 1 1 1 1 1 1 1 1 1 1 1 1 1 1 1 1 1 1 1 1 1 1 1 1 1 1 1 1 1 1 1 1 1 1 1 1 1 1 1 1 1 1 1 1 1 1 1 1 1 1 1 1 1 1 1 1 1 1 1 1 1 1 1 1 1 1 1 1 1 1 1 1 1 1 1 1 1 1 1 1 1 1 1 1 1 1 1 1 1 1 1 1 1 1 1 1 1 1 1 1 1 1 1 1 1 1 1 1 1 1 1 1 1 1 1 1 1 1 1 1 1 1 1 1 1 1 1 1 1 1 1 1 1 1 1 1 1 1 1 1 1 1 1 1 1 1 1 1 1 1 1 1 1 1 1 1 1 1 1 1 1 1 1 1 1 1 1 1 1 1 1 1 1 1 1 1 1 1 1 1 1 1 1 1 1 1 1 1 1 1 1 1 1 1 1 1 1 1 1 1 1 1 1 1 1 1 1 1 1 1 1 1 1 1 1 1 1 1 1 1 1 1 1 1 1 1 1 1 1 1 1 1 1 1 1 1 1 1 1 1 1 1 1 1 1 1 1 1 1 1 1 1 1 1 1 1 1 1 1 1 1 1 1 1 1 1 1 1 1 1 1 1 1 1 1 1 1 1 1 1 1 1 1 1 1 1 1 1 1 1 1 1 1 1 1 1 1 1 1 1 1 1 1 1 1 1 1 1 1 1 1 1 1 1 1 1 1 1 1 1 1 1 1 1 1 1 1 1 1 1 1 1 1 1 1 1 1 1 1 1 1 1 1 1 1 1 1 1 1 1 1 1 1 1 1 1 1 1 1 1 1 1 1 1 1 1 1 1 1 1 1 1 1 1 1 1 1 1 1 1 1 1 1 1 1 1 1 1 1 1 1 1 1 1 1 1 1 1 1 1 1 1 1 1 1 1 1 1 1 1 1 1 1 1 1 1 1 1 1 1 1 1 1 1 1 1 1 1 1 1 1 1 1 1 1 1 1 1 1 1 1 1 1 1 1 1 1 1 1 1 1 1 1 1 1 1 1 1 1 1 1 1 1 1 1 1 1 1 1 1 1 1 1 1 1 1 1 1 1 1 1 1 1 1 1 1 1 1 1 1 1 1 1 1 1 1 1 1 1 1 1 1 1 1 1 1 1 1 1 1 1 1 1 1 1 1 1 1 1 1 1 1 1 1 1 1 1 1 1 1 1 1 1 1 1 1 1 1 1 1 1 1 1 1 1 1 1 1 1 1 1 1 1 1 1 1 1 1 1 1 1 1 1 1 1 1 1 1 1 1 1 1 1 1 1 1 1 1 1 1 1 1 1 1 1 1 1 1 1 1 1 1 1 1 1 1 1 1 1 1 1 1 1 1 1 1 1 1 1 1 1 1 1 1 1 1 1 1 1 1 1 1 1 1 1 1 1 1 1 1 1 1 1 1 1 1 1 1 1 1 1 1 1 1 1 1 1 1 1 1 1 1 1 1 1 1 1 1 1 1 1 1 1 1 1 1 1 1 1 1 1 1 1 1 1 1 1 1 1 1 0 0 0 0 0 0 0 0 0 0 0 0 0 0 0 0 0 0 0 0 0 0 0 0 0 0 0 0 0 0 0 0 0 0 0 0 0 0 0 0 0 0 0 0 0 0 0 0 0 0 0 0 0 0 0 0 0 0 0 0 0 0 0 0 0 0 0 0 0 0 0 0 0 0 0 0 0 0 0 0 0 0 0 0 0 0 0 0 0 0 0 0 0 0 0 0 0 0 0 0 0 0 0 0 0 0 0 0 0 0 0 0 0 0 0 0 0 0 0 0 0 0 0 0 0 0 0 0 0 0 0 0 0 0 0 0 0 0 0 0 0 0 0 0 0 0 0 0 
        </DataArray>
      </CellData>
    </Piece>
  </UnstructuredGrid>
</VTKFile>
