<?xml version="1.0"?>
<!-- Time step: 1 | Time: 1.000000000000e+00 -->
<VTKFile type="UnstructuredGrid" version="0.1" byte_order="LittleEndian">
  <UnstructuredGrid>
    <Piece NumberOfPoints="527" NumberOfCells="480">
      <Points>
        <DataArray type="Float64" NumberOfComponents="3" format="ascii">
          1.000000000000e-03 0.000000000000e+00 0.000000000000e+00
          1.033333333333e-03 0.000000000000e+00 0.000000000000e+00
          1.066666666667e-03 0.000000000000e+00 0.000000000000e+00
          1.100000000000e-03 0.000000000000e+00 0.000000000000e+00
          1.133333333333e-03 0.000000000000e+00 0.000000000000e+00
          1.166666666667e-03 0.000000000000e+00 0.000000000000e+00
          1.200000000000e-03 0.000000000000e+00 0.000000000000e+00
          1.233333333333e-03 0.000000000000e+00 0.000000000000e+00
          1.266666666667e-03 0.000000000000e+00 0.000000000000e+00
          1.300000000000e-03 0.000000000000e+00 0.000000000000e+00
          1.333333333333e-03 0.000000000000e+00 0.000000000000e+00
          1.366666666667e-03 0.000000000000e+00 0.000000000000e+00
          1.400000000000e-03 0.000000000000e+00 0.000000000000e+00
          1.433333333333e-03 0.000000000000e+00 0.000000000000e+00
          1.466666666667e-03 0.000000000000e+00 0.000000000000e+00
          1.500000000000e-03 0.000000000000e+00 0.000000000000e+00
          1.533333333333e-03 0.000000000000e+00 0.000000000000e+00
          1.566666666667e-03 0.000000000000e+00 0.000000000000e+00
          1.600000000000e-03 0.000000000000e+00 0.000000000000e+00
          1.633333333333e-03 0.000000000000e+00 0.000000000000e+00
          1.666666666667e-03 0.000000000000e+00 0.000000000000e+00
          1.700000000000e-03 0.000000000000e+00 0.000000000000e+00
          1.733333333333e-03 0.000000000000e+00 0.000000000000e+00
          1.766666666667e-03 0.000000000000e+00 0.000000000000e+00
          1.800000000000e-03 0.000000000000e+00 0.000000000000e+00
          1.833333333333e-03 0.000000000000e+00 0.000000000000e+00
          1.866666666667e-03 0.000000000000e+00 0.000000000000e+00
          1.900000000000e-03 0.000000000000e+00 0.000000000000e+00
          1.933333333333e-03 0.000000000000e+00 0.000000000000e+00
          1.966666666667e-03 0.000000000000e+00 0.000000000000e+00
          2.000000000000e-03 0.000000000000e+00 0.000000000000e+00
          9.951847265300e-04 9.801714177290e-05 0.000000000000e+00
          1.028357550748e-03 1.012843798320e-04 0.000000000000e+00
          1.061530374965e-03 1.045516178911e-04 0.000000000000e+00
          1.094703199183e-03 1.078188559502e-04 0.000000000000e+00
          1.127876023401e-03 1.110860940093e-04 0.000000000000e+00
          1.161048847618e-03 1.143533320684e-04 0.000000000000e+00
          1.194221671836e-03 1.176205701275e-04 0.000000000000e+00
          1.227394496054e-03 1.208878081866e-04 0.000000000000e+00
          1.260567320271e-03 1.241550462457e-04 0.000000000000e+00
          1.293740144489e-03 1.274222843048e-04 0.000000000000e+00
          1.326912968707e-03 1.306895223639e-04 0.000000000000e+00
          1.360085792924e-03 1.339567604230e-04 0.000000000000e+00
          1.393258617142e-03 1.372239984821e-04 0.000000000000e+00
          1.426431441360e-03 1.404912365412e-04 0.000000000000e+00
          1.459604265577e-03 1.437584746002e-04 0.000000000000e+00
          1.492777089795e-03 1.470257126593e-04 0.000000000000e+00
          1.525949914013e-03 1.502929507184e-04 0.000000000000e+00
          1.559122738230e-03 1.535601887775e-04 0.000000000000e+00
          1.592295562448e-03 1.568274268366e-04 0.000000000000e+00
          1.625468386666e-03 1.600946648957e-04 0.000000000000e+00
          1.658641210883e-03 1.633619029548e-04 0.000000000000e+00
          1.691814035101e-03 1.666291410139e-04 0.000000000000e+00
          1.724986859319e-03 1.698963790730e-04 0.000000000000e+00
          1.758159683536e-03 1.731636171321e-04 0.000000000000e+00
          1.791332507754e-03 1.764308551912e-04 0.000000000000e+00
          1.824505331972e-03 1.796980932503e-04 0.000000000000e+00
          1.857678156189e-03 1.829653313094e-04 0.000000000000e+00
          1.890850980407e-03 1.862325693685e-04 0.000000000000e+00
          1.924023804625e-03 1.894998074276e-04 0.000000000000e+00
          1.957196628842e-03 1.927670454867e-04 0.000000000000e+00
          1.990369453060e-03 1.960342835458e-04 0.000000000000e+00
          9.807852798373e-04 1.950903248610e-04 0.000000000000e+00
          1.013478122499e-03 2.015933356897e-04 0.000000000000e+00
          1.046170965160e-03 2.080963465184e-04 0.000000000000e+00
          1.078863807821e-03 2.145993573471e-04 0.000000000000e+00
          1.111556650482e-03 2.211023681758e-04 0.000000000000e+00
          1.144249493144e-03 2.276053790045e-04 0.000000000000e+00
          1.176942335805e-03 2.341083898332e-04 0.000000000000e+00
          1.209635178466e-03 2.406114006619e-04 0.000000000000e+00
          1.242328021127e-03 2.471144114906e-04 0.000000000000e+00
          1.275020863789e-03 2.536174223193e-04 0.000000000000e+00
          1.307713706450e-03 2.601204331480e-04 0.000000000000e+00
          1.340406549111e-03 2.666234439767e-04 0.000000000000e+00
          1.373099391772e-03 2.731264548054e-04 0.000000000000e+00
          1.405792234434e-03 2.796294656341e-04 0.000000000000e+00
          1.438485077095e-03 2.861324764628e-04 0.000000000000e+00
          1.471177919756e-03 2.926354872915e-04 0.000000000000e+00
          1.503870762417e-03 2.991384981202e-04 0.000000000000e+00
          1.536563605079e-03 3.056415089489e-04 0.000000000000e+00
          1.569256447740e-03 3.121445197776e-04 0.000000000000e+00
          1.601949290401e-03 3.186475306064e-04 0.000000000000e+00
          1.634642133062e-03 3.251505414351e-04 0.000000000000e+00
          1.667334975723e-03 3.316535522638e-04 0.000000000000e+00
          1.700027818385e-03 3.381565630925e-04 0.000000000000e+00
          1.732720661046e-03 3.446595739212e-04 0.000000000000e+00
          1.765413503707e-03 3.511625847499e-04 0.000000000000e+00
          1.798106346368e-03 3.576655955786e-04 0.000000000000e+00
          1.830799189030e-03 3.641686064073e-04 0.000000000000e+00
          1.863492031691e-03 3.706716172360e-04 0.000000000000e+00
          1.896184874352e-03 3.771746280647e-04 0.000000000000e+00
          1.928877717013e-03 3.836776388934e-04 0.000000000000e+00
          1.961570559675e-03 3.901806497221e-04 0.000000000000e+00
          9.569403344692e-04 2.902846814181e-04 0.000000000000e+00
          9.888383456182e-04 2.999608374653e-04 0.000000000000e+00
          1.020736356767e-03 3.096369935126e-04 0.000000000000e+00
          1.052634367916e-03 3.193131495599e-04 0.000000000000e+00
          1.084532379065e-03 3.289893056071e-04 0.000000000000e+00
          1.116430390214e-03 3.386654616544e-04 0.000000000000e+00
          1.148328401363e-03 3.483416177017e-04 0.000000000000e+00
          1.180226412512e-03 3.580177737490e-04 0.000000000000e+00
          1.212124423661e-03 3.676939297962e-04 0.000000000000e+00
          1.244022434810e-03 3.773700858435e-04 0.000000000000e+00
          1.275920445959e-03 3.870462418908e-04 0.000000000000e+00
          1.307818457108e-03 3.967223979380e-04 0.000000000000e+00
          1.339716468257e-03 4.063985539853e-04 0.000000000000e+00
          1.371614479406e-03 4.160747100326e-04 0.000000000000e+00
          1.403512490555e-03 4.257508660798e-04 0.000000000000e+00
          1.435410501704e-03 4.354270221271e-04 0.000000000000e+00
          1.467308512853e-03 4.451031781744e-04 0.000000000000e+00
          1.499206524002e-03 4.547793342216e-04 0.000000000000e+00
          1.531104535151e-03 4.644554902689e-04 0.000000000000e+00
          1.563002546300e-03 4.741316463162e-04 0.000000000000e+00
          1.594900557449e-03 4.838078023634e-04 0.000000000000e+00
          1.626798568598e-03 4.934839584107e-04 0.000000000000e+00
          1.658696579747e-03 5.031601144580e-04 0.000000000000e+00
          1.690594590896e-03 5.128362705053e-04 0.000000000000e+00
          1.722492602045e-03 5.225124265525e-04 0.000000000000e+00
          1.754390613194e-03 5.321885825998e-04 0.000000000000e+00
          1.786288624343e-03 5.418647386471e-04 0.000000000000e+00
          1.818186635491e-03 5.515408946943e-04 0.000000000000e+00
          1.850084646640e-03 5.612170507416e-04 0.000000000000e+00
          1.881982657789e-03 5.708932067889e-04 0.000000000000e+00
          1.913880668938e-03 5.805693628361e-04 0.000000000000e+00
          9.238795302912e-04 3.826834377248e-04 0.000000000000e+00
          9.546755146343e-04 3.954395523156e-04 0.000000000000e+00
          9.854714989773e-04 4.081956669064e-04 0.000000000000e+00
          1.016267483320e-03 4.209517814972e-04 0.000000000000e+00
          1.047063467663e-03 4.337078960881e-04 0.000000000000e+00
          1.077859452006e-03 4.464640106789e-04 0.000000000000e+00
          1.108655436349e-03 4.592201252697e-04 0.000000000000e+00
          1.139451420693e-03 4.719762398606e-04 0.000000000000e+00
          1.170247405036e-03 4.847323544514e-04 0.000000000000e+00
          1.201043389379e-03 4.974884690422e-04 0.000000000000e+00
          1.231839373722e-03 5.102445836330e-04 0.000000000000e+00
          1.262635358065e-03 5.230006982239e-04 0.000000000000e+00
          1.293431342408e-03 5.357568128147e-04 0.000000000000e+00
          1.324227326751e-03 5.485129274055e-04 0.000000000000e+00
          1.355023311094e-03 5.612690419963e-04 0.000000000000e+00
          1.385819295437e-03 5.740251565872e-04 0.000000000000e+00
          1.416615279780e-03 5.867812711780e-04 0.000000000000e+00
          1.447411264123e-03 5.995373857688e-04 0.000000000000e+00
          1.478207248466e-03 6.122935003596e-04 0.000000000000e+00
          1.509003232809e-03 6.250496149505e-04 0.000000000000e+00
          1.539799217152e-03 6.378057295413e-04 0.000000000000e+00
          1.570595201495e-03 6.505618441321e-04 0.000000000000e+00
          1.601391185838e-03 6.633179587229e-04 0.000000000000e+00
          1.632187170181e-03 6.760740733138e-04 0.000000000000e+00
          1.662983154524e-03 6.888301879046e-04 0.000000000000e+00
          1.693779138867e-03 7.015863024954e-04 0.000000000000e+00
          1.724575123210e-03 7.143424170862e-04 0.000000000000e+00
          1.755371107553e-03 7.270985316771e-04 0.000000000000e+00
          1.786167091896e-03 7.398546462679e-04 0.000000000000e+00
          1.816963076239e-03 7.526107608587e-04 0.000000000000e+00
          1.847759060582e-03 7.653668754495e-04 0.000000000000e+00
          8.819212609300e-04 4.713967432213e-04 0.000000000000e+00
          9.113186362943e-04 4.871099679954e-04 0.000000000000e+00
          9.407160116586e-04 5.028231927694e-04 0.000000000000e+00
          9.701133870230e-04 5.185364175435e-04 0.000000000000e+00
          9.995107623873e-04 5.342496423175e-04 0.000000000000e+00
          1.028908137752e-03 5.499628670916e-04 0.000000000000e+00
          1.058305513116e-03 5.656760918656e-04 0.000000000000e+00
          1.087702888480e-03 5.813893166396e-04 0.000000000000e+00
          1.117100263845e-03 5.971025414137e-04 0.000000000000e+00
          1.146497639209e-03 6.128157661877e-04 0.000000000000e+00
          1.175895014573e-03 6.285289909618e-04 0.000000000000e+00
          1.205292389938e-03 6.442422157358e-04 0.000000000000e+00
          1.234689765302e-03 6.599554405099e-04 0.000000000000e+00
          1.264087140666e-03 6.756686652839e-04 0.000000000000e+00
          1.293484516031e-03 6.913818900580e-04 0.000000000000e+00
          1.322881891395e-03 7.070951148320e-04 0.000000000000e+00
          1.352279266759e-03 7.228083396060e-04 0.000000000000e+00
          1.381676642124e-03 7.385215643801e-04 0.000000000000e+00
          1.411074017488e-03 7.542347891541e-04 0.000000000000e+00
          1.440471392852e-03 7.699480139282e-04 0.000000000000e+00
          1.469868768217e-03 7.856612387022e-04 0.000000000000e+00
          1.499266143581e-03 8.013744634763e-04 0.000000000000e+00
          1.528663518945e-03 8.170876882503e-04 0.000000000000e+00
          1.558060894310e-03 8.328009130244e-04 0.000000000000e+00
          1.587458269674e-03 8.485141377984e-04 0.000000000000e+00
          1.616855645038e-03 8.642273625724e-04 0.000000000000e+00
          1.646253020403e-03 8.799405873465e-04 0.000000000000e+00
          1.675650395767e-03 8.956538121205e-04 0.000000000000e+00
          1.705047771131e-03 9.113670368946e-04 0.000000000000e+00
          1.734445146496e-03 9.270802616686e-04 0.000000000000e+00
          1.763842521860e-03 9.427934864427e-04 0.000000000000e+00
          8.314696074680e-04 5.555702402550e-04 0.000000000000e+00
          8.591852610503e-04 5.740892482635e-04 0.000000000000e+00
          8.869009146326e-04 5.926082562720e-04 0.000000000000e+00
          9.146165682148e-04 6.111272642805e-04 0.000000000000e+00
          9.423322217971e-04 6.296462722890e-04 0.000000000000e+00
          9.700478753794e-04 6.481652802975e-04 0.000000000000e+00
          9.977635289616e-04 6.666842883060e-04 0.000000000000e+00
          1.025479182544e-03 6.852032963145e-04 0.000000000000e+00
          1.053194836126e-03 7.037223043230e-04 0.000000000000e+00
          1.080910489708e-03 7.222413123315e-04 0.000000000000e+00
          1.108626143291e-03 7.407603203400e-04 0.000000000000e+00
          1.136341796873e-03 7.592793283485e-04 0.000000000000e+00
          1.164057450455e-03 7.777983363570e-04 0.000000000000e+00
          1.191773104038e-03 7.963173443655e-04 0.000000000000e+00
          1.219488757620e-03 8.148363523740e-04 0.000000000000e+00
          1.247204411202e-03 8.333553603825e-04 0.000000000000e+00
          1.274920064784e-03 8.518743683910e-04 0.000000000000e+00
          1.302635718367e-03 8.703933763995e-04 0.000000000000e+00
          1.330351371949e-03 8.889123844080e-04 0.000000000000e+00
          1.358067025531e-03 9.074313924165e-04 0.000000000000e+00
          1.385782679113e-03 9.259504004250e-04 0.000000000000e+00
          1.413498332696e-03 9.444694084335e-04 0.000000000000e+00
          1.441213986278e-03 9.629884164420e-04 0.000000000000e+00
          1.468929639860e-03 9.815074244505e-04 0.000000000000e+00
          1.496645293442e-03 1.000026432459e-03 0.000000000000e+00
          1.524360947025e-03 1.018545440467e-03 0.000000000000e+00
          1.552076600607e-03 1.037064448476e-03 0.000000000000e+00
          1.579792254189e-03 1.055583456484e-03 0.000000000000e+00
          1.607507907772e-03 1.074102464493e-03 0.000000000000e+00
          1.635223561354e-03 1.092621472501e-03 0.000000000000e+00
          1.662939214936e-03 1.111140480510e-03 0.000000000000e+00
          7.730104469222e-04 6.343932920114e-04 0.000000000000e+00
          7.987774618196e-04 6.555397350785e-04 0.000000000000e+00
          8.245444767170e-04 6.766861781455e-04 0.000000000000e+00
          8.503114916145e-04 6.978326212126e-04 0.000000000000e+00
          8.760785065119e-04 7.189790642796e-04 0.000000000000e+00
          9.018455214093e-04 7.401255073467e-04 0.000000000000e+00
          9.276125363067e-04 7.612719504137e-04 0.000000000000e+00
          9.533795512041e-04 7.824183934808e-04 0.000000000000e+00
          9.791465661015e-04 8.035648365478e-04 0.000000000000e+00
          1.004913580999e-03 8.247112796149e-04 0.000000000000e+00
          1.030680595896e-03 8.458577226819e-04 0.000000000000e+00
          1.056447610794e-03 8.670041657489e-04 0.000000000000e+00
          1.082214625691e-03 8.881506088160e-04 0.000000000000e+00
          1.107981640589e-03 9.092970518830e-04 0.000000000000e+00
          1.133748655486e-03 9.304434949501e-04 0.000000000000e+00
          1.159515670383e-03 9.515899380171e-04 0.000000000000e+00
          1.185282685281e-03 9.727363810842e-04 0.000000000000e+00
          1.211049700178e-03 9.938828241512e-04 0.000000000000e+00
          1.236816715076e-03 1.015029267218e-03 0.000000000000e+00
          1.262583729973e-03 1.036175710285e-03 0.000000000000e+00
          1.288350744870e-03 1.057322153352e-03 0.000000000000e+00
          1.314117759768e-03 1.078468596419e-03 0.000000000000e+00
          1.339884774665e-03 1.099615039486e-03 0.000000000000e+00
          1.365651789563e-03 1.120761482554e-03 0.000000000000e+00
          1.391418804460e-03 1.141907925621e-03 0.000000000000e+00
          1.417185819357e-03 1.163054368688e-03 0.000000000000e+00
          1.442952834255e-03 1.184200811755e-03 0.000000000000e+00
          1.468719849152e-03 1.205347254822e-03 0.000000000000e+00
          1.494486864050e-03 1.226493697889e-03 0.000000000000e+00
          1.520253878947e-03 1.247640140956e-03 0.000000000000e+00
          1.546020893844e-03 1.268786584023e-03 0.000000000000e+00
          7.071067729823e-04 7.071067893908e-04 0.000000000000e+00
          7.306769987484e-04 7.306770157038e-04 0.000000000000e+00
          7.542472245145e-04 7.542472420168e-04 0.000000000000e+00
          7.778174502805e-04 7.778174683299e-04 0.000000000000e+00
          8.013876760466e-04 8.013876946429e-04 0.000000000000e+00
          8.249579018127e-04 8.249579209559e-04 0.000000000000e+00
          8.485281275788e-04 8.485281472689e-04 0.000000000000e+00
          8.720983533448e-04 8.720983735820e-04 0.000000000000e+00
          8.956685791109e-04 8.956685998950e-04 0.000000000000e+00
          9.192388048770e-04 9.192388262080e-04 0.000000000000e+00
          9.428090306431e-04 9.428090525211e-04 0.000000000000e+00
          9.663792564091e-04 9.663792788341e-04 0.000000000000e+00
          9.899494821752e-04 9.899495051471e-04 0.000000000000e+00
          1.013519707941e-03 1.013519731460e-03 0.000000000000e+00
          1.037089933707e-03 1.037089957773e-03 0.000000000000e+00
          1.060660159473e-03 1.060660184086e-03 0.000000000000e+00
          1.084230385240e-03 1.084230410399e-03 0.000000000000e+00
          1.107800611006e-03 1.107800636712e-03 0.000000000000e+00
          1.131370836772e-03 1.131370863025e-03 0.000000000000e+00
          1.154941062538e-03 1.154941089338e-03 0.000000000000e+00
          1.178511288304e-03 1.178511315651e-03 0.000000000000e+00
          1.202081514070e-03 1.202081541964e-03 0.000000000000e+00
          1.225651739836e-03 1.225651768277e-03 0.000000000000e+00
          1.249221965602e-03 1.249221994590e-03 0.000000000000e+00
          1.272792191368e-03 1.272792220903e-03 0.000000000000e+00
          1.296362417134e-03 1.296362447216e-03 0.000000000000e+00
          1.319932642900e-03 1.319932673529e-03 0.000000000000e+00
          1.343502868666e-03 1.343502899843e-03 0.000000000000e+00
          1.367073094432e-03 1.367073126156e-03 0.000000000000e+00
          1.390643320199e-03 1.390643352469e-03 0.000000000000e+00
          1.414213545965e-03 1.414213578782e-03 0.000000000000e+00
          6.343932740736e-04 7.730104616434e-04 0.000000000000e+00
          6.555397165428e-04 7.987774770315e-04 0.000000000000e+00
          6.766861590119e-04 8.245444924196e-04 0.000000000000e+00
          6.978326014810e-04 8.503115078077e-04 0.000000000000e+00
          7.189790439501e-04 8.760785231958e-04 0.000000000000e+00
          7.401254864192e-04 9.018455385840e-04 0.000000000000e+00
          7.612719288884e-04 9.276125539721e-04 0.000000000000e+00
          7.824183713575e-04 9.533795693602e-04 0.000000000000e+00
          8.035648138266e-04 9.791465847483e-04 0.000000000000e+00
          8.247112562957e-04 1.004913600136e-03 0.000000000000e+00
          8.458576987649e-04 1.030680615525e-03 0.000000000000e+00
          8.670041412340e-04 1.056447630913e-03 0.000000000000e+00
          8.881505837031e-04 1.082214646301e-03 0.000000000000e+00
          9.092970261722e-04 1.107981661689e-03 0.000000000000e+00
          9.304434686413e-04 1.133748677077e-03 0.000000000000e+00
          9.515899111105e-04 1.159515692465e-03 0.000000000000e+00
          9.727363535796e-04 1.185282707853e-03 0.000000000000e+00
          9.938827960487e-04 1.211049723241e-03 0.000000000000e+00
          1.015029238518e-03 1.236816738629e-03 0.000000000000e+00
          1.036175680987e-03 1.262583754018e-03 0.000000000000e+00
          1.057322123456e-03 1.288350769406e-03 0.000000000000e+00
          1.078468565925e-03 1.314117784794e-03 0.000000000000e+00
          1.099615008394e-03 1.339884800182e-03 0.000000000000e+00
          1.120761450863e-03 1.365651815570e-03 0.000000000000e+00
          1.141907893333e-03 1.391418830958e-03 0.000000000000e+00
          1.163054335802e-03 1.417185846346e-03 0.000000000000e+00
          1.184200778271e-03 1.442952861734e-03 0.000000000000e+00
          1.205347220740e-03 1.468719877122e-03 0.000000000000e+00
          1.226493663209e-03 1.494486892511e-03 0.000000000000e+00
          1.247640105678e-03 1.520253907899e-03 0.000000000000e+00
          1.268786548147e-03 1.546020923287e-03 0.000000000000e+00
          5.555702209606e-04 8.314696203601e-04 0.000000000000e+00
          5.740892283260e-04 8.591852743721e-04 0.000000000000e+00
          5.926082356914e-04 8.869009283841e-04 0.000000000000e+00
          6.111272430567e-04 9.146165823961e-04 0.000000000000e+00
          6.296462504221e-04 9.423322364081e-04 0.000000000000e+00
          6.481652577874e-04 9.700478904201e-04 0.000000000000e+00
          6.666842651528e-04 9.977635444321e-04 0.000000000000e+00
          6.852032725181e-04 1.025479198444e-03 0.000000000000e+00
          7.037222798835e-04 1.053194852456e-03 0.000000000000e+00
          7.222412872488e-04 1.080910506468e-03 0.000000000000e+00
          7.407602946142e-04 1.108626160480e-03 0.000000000000e+00
          7.592793019795e-04 1.136341814492e-03 0.000000000000e+00
          7.777983093449e-04 1.164057468504e-03 0.000000000000e+00
          7.963173167103e-04 1.191773122516e-03 0.000000000000e+00
          8.148363240756e-04 1.219488776528e-03 0.000000000000e+00
          8.333553314410e-04 1.247204430540e-03 0.000000000000e+00
          8.518743388063e-04 1.274920084552e-03 0.000000000000e+00
          8.703933461717e-04 1.302635738564e-03 0.000000000000e+00
          8.889123535370e-04 1.330351392576e-03 0.000000000000e+00
          9.074313609024e-04 1.358067046588e-03 0.000000000000e+00
          9.259503682677e-04 1.385782700600e-03 0.000000000000e+00
          9.444693756331e-04 1.413498354612e-03 0.000000000000e+00
          9.629883829984e-04 1.441214008624e-03 0.000000000000e+00
          9.815073903638e-04 1.468929662636e-03 0.000000000000e+00
          1.000026397729e-03 1.496645316648e-03 0.000000000000e+00
          1.018545405095e-03 1.524360970660e-03 0.000000000000e+00
          1.037064412460e-03 1.552076624672e-03 0.000000000000e+00
          1.055583419825e-03 1.579792278684e-03 0.000000000000e+00
          1.074102427191e-03 1.607507932696e-03 0.000000000000e+00
          1.092621434556e-03 1.635223586708e-03 0.000000000000e+00
          1.111140441921e-03 1.662939240720e-03 0.000000000000e+00
          4.713967227563e-04 8.819212718688e-04 0.000000000000e+00
          4.871099468481e-04 9.113186475977e-04 0.000000000000e+00
          5.028231709400e-04 9.407160233267e-04 0.000000000000e+00
          5.185363950319e-04 9.701133990557e-04 0.000000000000e+00
          5.342496191238e-04 9.995107747846e-04 0.000000000000e+00
          5.499628432156e-04 1.028908150514e-03 0.000000000000e+00
          5.656760673075e-04 1.058305526243e-03 0.000000000000e+00
          5.813892913994e-04 1.087702901971e-03 0.000000000000e+00
          5.971025154913e-04 1.117100277700e-03 0.000000000000e+00
          6.128157395831e-04 1.146497653429e-03 0.000000000000e+00
          6.285289636750e-04 1.175895029158e-03 0.000000000000e+00
          6.442421877669e-04 1.205292404887e-03 0.000000000000e+00
          6.599554118588e-04 1.234689780616e-03 0.000000000000e+00
          6.756686359506e-04 1.264087156345e-03 0.000000000000e+00
          6.913818600425e-04 1.293484532074e-03 0.000000000000e+00
          7.070950841344e-04 1.322881907803e-03 0.000000000000e+00
          7.228083082263e-04 1.352279283532e-03 0.000000000000e+00
          7.385215323181e-04 1.381676659261e-03 0.000000000000e+00
          7.542347564100e-04 1.411074034990e-03 0.000000000000e+00
          7.699479805019e-04 1.440471410719e-03 0.000000000000e+00
          7.856612045938e-04 1.469868786448e-03 0.000000000000e+00
          8.013744286856e-04 1.499266162177e-03 0.000000000000e+00
          8.170876527775e-04 1.528663537906e-03 0.000000000000e+00
          8.328008768694e-04 1.558060913635e-03 0.000000000000e+00
          8.485141009613e-04 1.587458289364e-03 0.000000000000e+00
          8.642273250531e-04 1.616855665093e-03 0.000000000000e+00
          8.799405491450e-04 1.646253040822e-03 0.000000000000e+00
          8.956537732369e-04 1.675650416551e-03 0.000000000000e+00
          9.113669973288e-04 1.705047792280e-03 0.000000000000e+00
          9.270802214206e-04 1.734445168009e-03 0.000000000000e+00
          9.427934455125e-04 1.763842543738e-03 0.000000000000e+00
          3.826834162860e-04 9.238795391714e-04 0.000000000000e+00
          3.954395301623e-04 9.546755238105e-04 0.000000000000e+00
          4.081956440385e-04 9.854715084495e-04 0.000000000000e+00
          4.209517579147e-04 1.016267493089e-03 0.000000000000e+00
          4.337078717909e-04 1.047063477728e-03 0.000000000000e+00
          4.464639856671e-04 1.077859462367e-03 0.000000000000e+00
          4.592200995433e-04 1.108655447006e-03 0.000000000000e+00
          4.719762134195e-04 1.139451431645e-03 0.000000000000e+00
          4.847323272957e-04 1.170247416284e-03 0.000000000000e+00
          4.974884411719e-04 1.201043400923e-03 0.000000000000e+00
          5.102445550481e-04 1.231839385562e-03 0.000000000000e+00
          5.230006689243e-04 1.262635370201e-03 0.000000000000e+00
          5.357567828005e-04 1.293431354840e-03 0.000000000000e+00
          5.485128966767e-04 1.324227339479e-03 0.000000000000e+00
          5.612690105529e-04 1.355023324118e-03 0.000000000000e+00
          5.740251244291e-04 1.385819308757e-03 0.000000000000e+00
          5.867812383053e-04 1.416615293396e-03 0.000000000000e+00
          5.995373521815e-04 1.447411278035e-03 0.000000000000e+00
          6.122934660577e-04 1.478207262674e-03 0.000000000000e+00
          6.250495799339e-04 1.509003247313e-03 0.000000000000e+00
          6.378056938101e-04 1.539799231952e-03 0.000000000000e+00
          6.505618076863e-04 1.570595216591e-03 0.000000000000e+00
          6.633179215625e-04 1.601391201230e-03 0.000000000000e+00
          6.760740354387e-04 1.632187185870e-03 0.000000000000e+00
          6.888301493149e-04 1.662983170509e-03 0.000000000000e+00
          7.015862631911e-04 1.693779155148e-03 0.000000000000e+00
          7.143423770673e-04 1.724575139787e-03 0.000000000000e+00
          7.270984909435e-04 1.755371124426e-03 0.000000000000e+00
          7.398546048197e-04 1.786167109065e-03 0.000000000000e+00
          7.526107186959e-04 1.816963093704e-03 0.000000000000e+00
          7.653668325721e-04 1.847759078343e-03 0.000000000000e+00
          2.902846592122e-04 9.569403412053e-04 0.000000000000e+00
          2.999608145192e-04 9.888383525788e-04 0.000000000000e+00
          3.096369698263e-04 1.020736363952e-03 0.000000000000e+00
          3.193131251334e-04 1.052634375326e-03 0.000000000000e+00
          3.289892804405e-04 1.084532386699e-03 0.000000000000e+00
          3.386654357475e-04 1.116430398073e-03 0.000000000000e+00
          3.483415910546e-04 1.148328409446e-03 0.000000000000e+00
          3.580177463617e-04 1.180226420820e-03 0.000000000000e+00
          3.676939016687e-04 1.212124432193e-03 0.000000000000e+00
          3.773700569758e-04 1.244022443567e-03 0.000000000000e+00
          3.870462122829e-04 1.275920454940e-03 0.000000000000e+00
          3.967223675900e-04 1.307818466314e-03 0.000000000000e+00
          4.063985228970e-04 1.339716477687e-03 0.000000000000e+00
          4.160746782041e-04 1.371614489061e-03 0.000000000000e+00
          4.257508335112e-04 1.403512500434e-03 0.000000000000e+00
          4.354269888183e-04 1.435410511808e-03 0.000000000000e+00
          4.451031441253e-04 1.467308523181e-03 0.000000000000e+00
          4.547792994324e-04 1.499206534555e-03 0.000000000000e+00
          4.644554547395e-04 1.531104545928e-03 0.000000000000e+00
          4.741316100465e-04 1.563002557302e-03 0.000000000000e+00
          4.838077653536e-04 1.594900568675e-03 0.000000000000e+00
          4.934839206607e-04 1.626798580049e-03 0.000000000000e+00
          5.031600759678e-04 1.658696591422e-03 0.000000000000e+00
          5.128362312748e-04 1.690594602796e-03 0.000000000000e+00
          5.225123865819e-04 1.722492614169e-03 0.000000000000e+00
          5.321885418890e-04 1.754390625543e-03 0.000000000000e+00
          5.418646971960e-04 1.786288636917e-03 0.000000000000e+00
          5.515408525031e-04 1.818186648290e-03 0.000000000000e+00
          5.612170078102e-04 1.850084659664e-03 0.000000000000e+00
          5.708931631173e-04 1.881982671037e-03 0.000000000000e+00
          5.805693184243e-04 1.913880682411e-03 0.000000000000e+00
          1.950903021018e-04 9.807852843644e-04 0.000000000000e+00
          2.015933121719e-04 1.013478127177e-03 0.000000000000e+00
          2.080963222419e-04 1.046170969989e-03 0.000000000000e+00
          2.145993323120e-04 1.078863812801e-03 0.000000000000e+00
          2.211023423820e-04 1.111556655613e-03 0.000000000000e+00
          2.276053524521e-04 1.144249498425e-03 0.000000000000e+00
          2.341083625222e-04 1.176942341237e-03 0.000000000000e+00
          2.406113725922e-04 1.209635184049e-03 0.000000000000e+00
          2.471143826623e-04 1.242328026862e-03 0.000000000000e+00
          2.536173927323e-04 1.275020869674e-03 0.000000000000e+00
          2.601204028024e-04 1.307713712486e-03 0.000000000000e+00
          2.666234128725e-04 1.340406555298e-03 0.000000000000e+00
          2.731264229425e-04 1.373099398110e-03 0.000000000000e+00
          2.796294330126e-04 1.405792240922e-03 0.000000000000e+00
          2.861324430827e-04 1.438485083735e-03 0.000000000000e+00
          2.926354531527e-04 1.471177926547e-03 0.000000000000e+00
          2.991384632228e-04 1.503870769359e-03 0.000000000000e+00
          3.056414732928e-04 1.536563612171e-03 0.000000000000e+00
          3.121444833629e-04 1.569256454983e-03 0.000000000000e+00
          3.186474934330e-04 1.601949297795e-03 0.000000000000e+00
          3.251505035030e-04 1.634642140607e-03 0.000000000000e+00
          3.316535135731e-04 1.667334983420e-03 0.000000000000e+00
          3.381565236431e-04 1.700027826232e-03 0.000000000000e+00
          3.446595337132e-04 1.732720669044e-03 0.000000000000e+00
          3.511625437833e-04 1.765413511856e-03 0.000000000000e+00
          3.576655538533e-04 1.798106354668e-03 0.000000000000e+00
          3.641685639234e-04 1.830799197480e-03 0.000000000000e+00
          3.706715739934e-04 1.863492040292e-03 0.000000000000e+00
          3.771745840635e-04 1.896184883105e-03 0.000000000000e+00
          3.836775941336e-04 1.928877725917e-03 0.000000000000e+00
          3.901806042036e-04 1.961570568729e-03 0.000000000000e+00
          9.801711867953e-05 9.951847288045e-04 0.000000000000e+00
          1.012843559688e-04 1.028357553098e-03 0.000000000000e+00
          1.045515932582e-04 1.061530377392e-03 0.000000000000e+00
          1.078188305475e-04 1.094703201685e-03 0.000000000000e+00
          1.110860678368e-04 1.127876025978e-03 0.000000000000e+00
          1.143533051261e-04 1.161048850272e-03 0.000000000000e+00
          1.176205424154e-04 1.194221674565e-03 0.000000000000e+00
          1.208877797048e-04 1.227394498859e-03 0.000000000000e+00
          1.241550169941e-04 1.260567323152e-03 0.000000000000e+00
          1.274222542834e-04 1.293740147446e-03 0.000000000000e+00
          1.306894915727e-04 1.326912971739e-03 0.000000000000e+00
          1.339567288620e-04 1.360085796033e-03 0.000000000000e+00
          1.372239661513e-04 1.393258620326e-03 0.000000000000e+00
          1.404912034407e-04 1.426431444620e-03 0.000000000000e+00
          1.437584407300e-04 1.459604268913e-03 0.000000000000e+00
          1.470256780193e-04 1.492777093207e-03 0.000000000000e+00
          1.502929153086e-04 1.525949917500e-03 0.000000000000e+00
          1.535601525979e-04 1.559122741794e-03 0.000000000000e+00
          1.568273898872e-04 1.592295566087e-03 0.000000000000e+00
          1.600946271766e-04 1.625468390381e-03 0.000000000000e+00
          1.633618644659e-04 1.658641214674e-03 0.000000000000e+00
          1.666291017552e-04 1.691814038968e-03 0.000000000000e+00
          1.698963390445e-04 1.724986863261e-03 0.000000000000e+00
          1.731635763338e-04 1.758159687555e-03 0.000000000000e+00
          1.764308136232e-04 1.791332511848e-03 0.000000000000e+00
          1.796980509125e-04 1.824505336142e-03 0.000000000000e+00
          1.829652882018e-04 1.857678160435e-03 0.000000000000e+00
          1.862325254911e-04 1.890850984729e-03 0.000000000000e+00
          1.894997627804e-04 1.924023809022e-03 0.000000000000e+00
          1.927670000697e-04 1.957196633316e-03 0.000000000000e+00
          1.960342373591e-04 1.990369457609e-03 0.000000000000e+00
          -2.320510333314e-11 1.000000000000e-03 0.000000000000e+00
          -2.397860677758e-11 1.033333333333e-03 0.000000000000e+00
          -2.475211022202e-11 1.066666666667e-03 0.000000000000e+00
          -2.552561366646e-11 1.100000000000e-03 0.000000000000e+00
          -2.629911711090e-11 1.133333333333e-03 0.000000000000e+00
          -2.707262055534e-11 1.166666666667e-03 0.000000000000e+00
          -2.784612399977e-11 1.200000000000e-03 0.000000000000e+00
          -2.861962744421e-11 1.233333333333e-03 0.000000000000e+00
          -2.939313088865e-11 1.266666666667e-03 0.000000000000e+00
          -3.016663433309e-11 1.300000000000e-03 0.000000000000e+00
          -3.094013777753e-11 1.333333333333e-03 0.000000000000e+00
          -3.171364122196e-11 1.366666666667e-03 0.000000000000e+00
          -3.248714466640e-11 1.400000000000e-03 0.000000000000e+00
          -3.326064811084e-11 1.433333333333e-03 0.000000000000e+00
          -3.403415155528e-11 1.466666666667e-03 0.000000000000e+00
          -3.480765499972e-11 1.500000000000e-03 0.000000000000e+00
          -3.558115844415e-11 1.533333333333e-03 0.000000000000e+00
          -3.635466188859e-11 1.566666666667e-03 0.000000000000e+00
          -3.712816533303e-11 1.600000000000e-03 0.000000000000e+00
          -3.790166877747e-11 1.633333333333e-03 0.000000000000e+00
          -3.867517222191e-11 1.666666666667e-03 0.000000000000e+00
          -3.944867566635e-11 1.700000000000e-03 0.000000000000e+00
          -4.022217911078e-11 1.733333333333e-03 0.000000000000e+00
          -4.099568255522e-11 1.766666666667e-03 0.000000000000e+00
          -4.176918599966e-11 1.800000000000e-03 0.000000000000e+00
          -4.254268944410e-11 1.833333333333e-03 0.000000000000e+00
          -4.331619288854e-11 1.866666666667e-03 0.000000000000e+00
          -4.408969633297e-11 1.900000000000e-03 0.000000000000e+00
          -4.486319977741e-11 1.933333333333e-03 0.000000000000e+00
          -4.563670322185e-11 1.966666666667e-03 0.000000000000e+00
          -4.641020666629e-11 2.000000000000e-03 0.000000000000e+00
        </DataArray>
      </Points>
      <Cells>
        <DataArray type="Int64" Name="connectivity" format="ascii">
          31 0 1 32 
          32 1 2 33 
          33 2 3 34 
          34 3 4 35 
          35 4 5 36 
          36 5 6 37 
          37 6 7 38 
          38 7 8 39 
          39 8 9 40 
          40 9 10 41 
          41 10 11 42 
          42 11 12 43 
          43 12 13 44 
          44 13 14 45 
          45 14 15 46 
          46 15 16 47 
          47 16 17 48 
          48 17 18 49 
          49 18 19 50 
          50 19 20 51 
          51 20 21 52 
          52 21 22 53 
          53 22 23 54 
          54 23 24 55 
          55 24 25 56 
          56 25 26 57 
          57 26 27 58 
          58 27 28 59 
          59 28 29 60 
          60 29 30 61 
          62 31 32 63 
          63 32 33 64 
          64 33 34 65 
          65 34 35 66 
          66 35 36 67 
          67 36 37 68 
          68 37 38 69 
          69 38 39 70 
          70 39 40 71 
          71 40 41 72 
          72 41 42 73 
          73 42 43 74 
          74 43 44 75 
          75 44 45 76 
          76 45 46 77 
          77 46 47 78 
          78 47 48 79 
          79 48 49 80 
          80 49 50 81 
          81 50 51 82 
          82 51 52 83 
          83 52 53 84 
          84 53 54 85 
          85 54 55 86 
          86 55 56 87 
          87 56 57 88 
          88 57 58 89 
          89 58 59 90 
          90 59 60 91 
          91 60 61 92 
          93 62 63 94 
          94 63 64 95 
          95 64 65 96 
          96 65 66 97 
          97 66 67 98 
          98 67 68 99 
          99 68 69 100 
          100 69 70 101 
          101 70 71 102 
          102 71 72 103 
          103 72 73 104 
          104 73 74 105 
          105 74 75 106 
          106 75 76 107 
          107 76 77 108 
          108 77 78 109 
          109 78 79 110 
          110 79 80 111 
          111 80 81 112 
          112 81 82 113 
          113 82 83 114 
          114 83 84 115 
          115 84 85 116 
          116 85 86 117 
          117 86 87 118 
          118 87 88 119 
          119 88 89 120 
          120 89 90 121 
          121 90 91 122 
          122 91 92 123 
          124 93 94 125 
          125 94 95 126 
          126 95 96 127 
          127 96 97 128 
          128 97 98 129 
          129 98 99 130 
          130 99 100 131 
          131 100 101 132 
          132 101 102 133 
          133 102 103 134 
          134 103 104 135 
          135 104 105 136 
          136 105 106 137 
          137 106 107 138 
          138 107 108 139 
          139 108 109 140 
          140 109 110 141 
          141 110 111 142 
          142 111 112 143 
          143 112 113 144 
          144 113 114 145 
          145 114 115 146 
          146 115 116 147 
          147 116 117 148 
          148 117 118 149 
          149 118 119 150 
          150 119 120 151 
          151 120 121 152 
          152 121 122 153 
          153 122 123 154 
          155 124 125 156 
          156 125 126 157 
          157 126 127 158 
          158 127 128 159 
          159 128 129 160 
          160 129 130 161 
          161 130 131 162 
          162 131 132 163 
          163 132 133 164 
          164 133 134 165 
          165 134 135 166 
          166 135 136 167 
          167 136 137 168 
          168 137 138 169 
          169 138 139 170 
          170 139 140 171 
          171 140 141 172 
          172 141 142 173 
          173 142 143 174 
          174 143 144 175 
          175 144 145 176 
          176 145 146 177 
          177 146 147 178 
          178 147 148 179 
          179 148 149 180 
          180 149 150 181 
          181 150 151 182 
          182 151 152 183 
          183 152 153 184 
          184 153 154 185 
          186 155 156 187 
          187 156 157 188 
          188 157 158 189 
          189 158 159 190 
          190 159 160 191 
          191 160 161 192 
          192 161 162 193 
          193 162 163 194 
          194 163 164 195 
          195 164 165 196 
          196 165 166 197 
          197 166 167 198 
          198 167 168 199 
          199 168 169 200 
          200 169 170 201 
          201 170 171 202 
          202 171 172 203 
          203 172 173 204 
          204 173 174 205 
          205 174 175 206 
          206 175 176 207 
          207 176 177 208 
          208 177 178 209 
          209 178 179 210 
          210 179 180 211 
          211 180 181 212 
          212 181 182 213 
          213 182 183 214 
          214 183 184 215 
          215 184 185 216 
          217 186 187 218 
          218 187 188 219 
          219 188 189 220 
          220 189 190 221 
          221 190 191 222 
          222 191 192 223 
          223 192 193 224 
          224 193 194 225 
          225 194 195 226 
          226 195 196 227 
          227 196 197 228 
          228 197 198 229 
          229 198 199 230 
          230 199 200 231 
          231 200 201 232 
          232 201 202 233 
          233 202 203 234 
          234 203 204 235 
          235 204 205 236 
          236 205 206 237 
          237 206 207 238 
          238 207 208 239 
          239 208 209 240 
          240 209 210 241 
          241 210 211 242 
          242 211 212 243 
          243 212 213 244 
          244 213 214 245 
          245 214 215 246 
          246 215 216 247 
          248 217 218 249 
          249 218 219 250 
          250 219 220 251 
          251 220 221 252 
          252 221 222 253 
          253 222 223 254 
          254 223 224 255 
          255 224 225 256 
          256 225 226 257 
          257 226 227 258 
          258 227 228 259 
          259 228 229 260 
          260 229 230 261 
          261 230 231 262 
          262 231 232 263 
          263 232 233 264 
          264 233 234 265 
          265 234 235 266 
          266 235 236 267 
          267 236 237 268 
          268 237 238 269 
          269 238 239 270 
          270 239 240 271 
          271 240 241 272 
          272 241 242 273 
          273 242 243 274 
          274 243 244 275 
          275 244 245 276 
          276 245 246 277 
          277 246 247 278 
          279 248 249 280 
          280 249 250 281 
          281 250 251 282 
          282 251 252 283 
          283 252 253 284 
          284 253 254 285 
          285 254 255 286 
          286 255 256 287 
          287 256 257 288 
          288 257 258 289 
          289 258 259 290 
          290 259 260 291 
          291 260 261 292 
          292 261 262 293 
          293 262 263 294 
          294 263 264 295 
          295 264 265 296 
          296 265 266 297 
          297 266 267 298 
          298 267 268 299 
          299 268 269 300 
          300 269 270 301 
          301 270 271 302 
          302 271 272 303 
          303 272 273 304 
          304 273 274 305 
          305 274 275 306 
          306 275 276 307 
          307 276 277 308 
          308 277 278 309 
          310 279 280 311 
          311 280 281 312 
          312 281 282 313 
          313 282 283 314 
          314 283 284 315 
          315 284 285 316 
          316 285 286 317 
          317 286 287 318 
          318 287 288 319 
          319 288 289 320 
          320 289 290 321 
          321 290 291 322 
          322 291 292 323 
          323 292 293 324 
          324 293 294 325 
          325 294 295 326 
          326 295 296 327 
          327 296 297 328 
          328 297 298 329 
          329 298 299 330 
          330 299 300 331 
          331 300 301 332 
          332 301 302 333 
          333 302 303 334 
          334 303 304 335 
          335 304 305 336 
          336 305 306 337 
          337 306 307 338 
          338 307 308 339 
          339 308 309 340 
          341 310 311 342 
          342 311 312 343 
          343 312 313 344 
          344 313 314 345 
          345 314 315 346 
          346 315 316 347 
          347 316 317 348 
          348 317 318 349 
          349 318 319 350 
          350 319 320 351 
          351 320 321 352 
          352 321 322 353 
          353 322 323 354 
          354 323 324 355 
          355 324 325 356 
          356 325 326 357 
          357 326 327 358 
          358 327 328 359 
          359 328 329 360 
          360 329 330 361 
          361 330 331 362 
          362 331 332 363 
          363 332 333 364 
          364 333 334 365 
          365 334 335 366 
          366 335 336 367 
          367 336 337 368 
          368 337 338 369 
          369 338 339 370 
          370 339 340 371 
          372 341 342 373 
          373 342 343 374 
          374 343 344 375 
          375 344 345 376 
          376 345 346 377 
          377 346 347 378 
          378 347 348 379 
          379 348 349 380 
          380 349 350 381 
          381 350 351 382 
          382 351 352 383 
          383 352 353 384 
          384 353 354 385 
          385 354 355 386 
          386 355 356 387 
          387 356 357 388 
          388 357 358 389 
          389 358 359 390 
          390 359 360 391 
          391 360 361 392 
          392 361 362 393 
          393 362 363 394 
          394 363 364 395 
          395 364 365 396 
          396 365 366 397 
          397 366 367 398 
          398 367 368 399 
          399 368 369 400 
          400 369 370 401 
          401 370 371 402 
          403 372 373 404 
          404 373 374 405 
          405 374 375 406 
          406 375 376 407 
          407 376 377 408 
          408 377 378 409 
          409 378 379 410 
          410 379 380 411 
          411 380 381 412 
          412 381 382 413 
          413 382 383 414 
          414 383 384 415 
          415 384 385 416 
          416 385 386 417 
          417 386 387 418 
          418 387 388 419 
          419 388 389 420 
          420 389 390 421 
          421 390 391 422 
          422 391 392 423 
          423 392 393 424 
          424 393 394 425 
          425 394 395 426 
          426 395 396 427 
          427 396 397 428 
          428 397 398 429 
          429 398 399 430 
          430 399 400 431 
          431 400 401 432 
          432 401 402 433 
          434 403 404 435 
          435 404 405 436 
          436 405 406 437 
          437 406 407 438 
          438 407 408 439 
          439 408 409 440 
          440 409 410 441 
          441 410 411 442 
          442 411 412 443 
          443 412 413 444 
          444 413 414 445 
          445 414 415 446 
          446 415 416 447 
          447 416 417 448 
          448 417 418 449 
          449 418 419 450 
          450 419 420 451 
          451 420 421 452 
          452 421 422 453 
          453 422 423 454 
          454 423 424 455 
          455 424 425 456 
          456 425 426 457 
          457 426 427 458 
          458 427 428 459 
          459 428 429 460 
          460 429 430 461 
          461 430 431 462 
          462 431 432 463 
          463 432 433 464 
          465 434 435 466 
          466 435 436 467 
          467 436 437 468 
          468 437 438 469 
          469 438 439 470 
          470 439 440 471 
          471 440 441 472 
          472 441 442 473 
          473 442 443 474 
          474 443 444 475 
          475 444 445 476 
          476 445 446 477 
          477 446 447 478 
          478 447 448 479 
          479 448 449 480 
          480 449 450 481 
          481 450 451 482 
          482 451 452 483 
          483 452 453 484 
          484 453 454 485 
          485 454 455 486 
          486 455 456 487 
          487 456 457 488 
          488 457 458 489 
          489 458 459 490 
          490 459 460 491 
          491 460 461 492 
          492 461 462 493 
          493 462 463 494 
          494 463 464 495 
          496 465 466 497 
          497 466 467 498 
          498 467 468 499 
          499 468 469 500 
          500 469 470 501 
          501 470 471 502 
          502 471 472 503 
          503 472 473 504 
          504 473 474 505 
          505 474 475 506 
          506 475 476 507 
          507 476 477 508 
          508 477 478 509 
          509 478 479 510 
          510 479 480 511 
          511 480 481 512 
          512 481 482 513 
          513 482 483 514 
          514 483 484 515 
          515 484 485 516 
          516 485 486 517 
          517 486 487 518 
          518 487 488 519 
          519 488 489 520 
          520 489 490 521 
          521 490 491 522 
          522 491 492 523 
          523 492 493 524 
          524 493 494 525 
          525 494 495 526 
        </DataArray>
        <DataArray type="Int64" Name="offsets" format="ascii">
          4 8 12 16 20 24 28 32 36 40 44 48 52 56 60 64 68 72 76 80 84 88 92 96 100 104 108 112 116 120 124 128 132 136 140 144 148 152 156 160 164 168 172 176 180 184 188 192 196 200 204 208 212 216 220 224 228 232 236 240 244 248 252 256 260 264 268 272 276 280 284 288 292 296 300 304 308 312 316 320 324 328 332 336 340 344 348 352 356 360 364 368 372 376 380 384 388 392 396 400 404 408 412 416 420 424 428 432 436 440 444 448 452 456 460 464 468 472 476 480 484 488 492 496 500 504 508 512 516 520 524 528 532 536 540 544 548 552 556 560 564 568 572 576 580 584 588 592 596 600 604 608 612 616 620 624 628 632 636 640 644 648 652 656 660 664 668 672 676 680 684 688 692 696 700 704 708 712 716 720 724 728 732 736 740 744 748 752 756 760 764 768 772 776 780 784 788 792 796 800 804 808 812 816 820 824 828 832 836 840 844 848 852 856 860 864 868 872 876 880 884 888 892 896 900 904 908 912 916 920 924 928 932 936 940 944 948 952 956 960 964 968 972 976 980 984 988 992 996 1000 1004 1008 1012 1016 1020 1024 1028 1032 1036 1040 1044 1048 1052 1056 1060 1064 1068 1072 1076 1080 1084 1088 1092 1096 1100 1104 1108 1112 1116 1120 1124 1128 1132 1136 1140 1144 1148 1152 1156 1160 1164 1168 1172 1176 1180 1184 1188 1192 1196 1200 1204 1208 1212 1216 1220 1224 1228 1232 1236 1240 1244 1248 1252 1256 1260 1264 1268 1272 1276 1280 1284 1288 1292 1296 1300 1304 1308 1312 1316 1320 1324 1328 1332 1336 1340 1344 1348 1352 1356 1360 1364 1368 1372 1376 1380 1384 1388 1392 1396 1400 1404 1408 1412 1416 1420 1424 1428 1432 1436 1440 1444 1448 1452 1456 1460 1464 1468 1472 1476 1480 1484 1488 1492 1496 1500 1504 1508 1512 1516 1520 1524 1528 1532 1536 1540 1544 1548 1552 1556 1560 1564 1568 1572 1576 1580 1584 1588 1592 1596 1600 1604 1608 1612 1616 1620 1624 1628 1632 1636 1640 1644 1648 1652 1656 1660 1664 1668 1672 1676 1680 1684 1688 1692 1696 1700 1704 1708 1712 1716 1720 1724 1728 1732 1736 1740 1744 1748 1752 1756 1760 1764 1768 1772 1776 1780 1784 1788 1792 1796 1800 1804 1808 1812 1816 1820 1824 1828 1832 1836 1840 1844 1848 1852 1856 1860 1864 1868 1872 1876 1880 1884 1888 1892 1896 1900 1904 1908 1912 1916 1920 
        </DataArray>
        <DataArray type="UInt8" Name="types" format="ascii">
          9 9 9 9 9 9 9 9 9 9 9 9 9 9 9 9 9 9 9 9 9 9 9 9 9 9 9 9 9 9 9 9 9 9 9 9 9 9 9 9 9 9 9 9 9 9 9 9 9 9 9 9 9 9 9 9 9 9 9 9 9 9 9 9 9 9 9 9 9 9 9 9 9 9 9 9 9 9 9 9 9 9 9 9 9 9 9 9 9 9 9 9 9 9 9 9 9 9 9 9 9 9 9 9 9 9 9 9 9 9 9 9 9 9 9 9 9 9 9 9 9 9 9 9 9 9 9 9 9 9 9 9 9 9 9 9 9 9 9 9 9 9 9 9 9 9 9 9 9 9 9 9 9 9 9 9 9 9 9 9 9 9 9 9 9 9 9 9 9 9 9 9 9 9 9 9 9 9 9 9 9 9 9 9 9 9 9 9 9 9 9 9 9 9 9 9 9 9 9 9 9 9 9 9 9 9 9 9 9 9 9 9 9 9 9 9 9 9 9 9 9 9 9 9 9 9 9 9 9 9 9 9 9 9 9 9 9 9 9 9 9 9 9 9 9 9 9 9 9 9 9 9 9 9 9 9 9 9 9 9 9 9 9 9 9 9 9 9 9 9 9 9 9 9 9 9 9 9 9 9 9 9 9 9 9 9 9 9 9 9 9 9 9 9 9 9 9 9 9 9 9 9 9 9 9 9 9 9 9 9 9 9 9 9 9 9 9 9 9 9 9 9 9 9 9 9 9 9 9 9 9 9 9 9 9 9 9 9 9 9 9 9 9 9 9 9 9 9 9 9 9 9 9 9 9 9 9 9 9 9 9 9 9 9 9 9 9 9 9 9 9 9 9 9 9 9 9 9 9 9 9 9 9 9 9 9 9 9 9 9 9 9 9 9 9 9 9 9 9 9 9 9 9 9 9 9 9 9 9 9 9 9 9 9 9 9 9 9 9 9 9 9 9 9 9 9 9 9 9 9 9 9 9 9 9 9 9 9 9 9 9 9 9 9 9 9 9 9 9 9 9 9 9 9 9 9 9 9 9 9 9 9 9 9 9 9 9 9 9 9 9 9 9 9 9 9 9 9 9 9 
        </DataArray>
      </Cells>
      <PointData Scalars="DISPLACEMENT_X1">
        <DataArray type="Float64" Name="STRESS_1" format="ascii">
          8.703968640591e+07 8.261448056818e+07 7.859538695714e+07 7.493551150428e+07 7.159360458300e+07 6.853395231260e+07 6.572566328986e+07 6.314194555994e+07 6.075947994792e+07 5.855789632803e+07 5.651933761768e+07 5.462809711135e+07 5.287031496246e+07 5.123372373605e+07 4.970743372248e+07 4.828175141247e+07 4.694802519009e+07 4.569851378488e+07 4.452627370667e+07 4.342506254273e+07 4.238925570189e+07 4.141377436905e+07 4.049402306086e+07 3.962583514997e+07 3.880542516162e+07 3.802934651631e+07 3.729445347558e+07 3.659786569191e+07 3.593693314430e+07 3.530919795268e+07 3.471231705842e+07 8.703968403318e+07 8.261448044322e+07 7.859538704887e+07 7.493551155388e+07 7.159360454513e+07 6.853395219953e+07 6.572566310367e+07 6.314194531805e+07 6.075947965333e+07 5.855789599585e+07 5.651933724760e+07 5.462809670661e+07 5.287031451881e+07 5.123372325328e+07 4.970743320272e+07 4.828175085209e+07 4.694802459266e+07 4.569851313522e+07 4.452627300986e+07 4.342506177799e+07 4.238925488611e+07 4.141377347672e+07 4.049402211110e+07 3.962583410641e+07 3.880542404830e+07 3.802934529949e+07 3.729445218981e+07 3.659786431458e+07 3.593693172661e+07 3.530919650158e+07 3.471231560229e+07 8.703969075025e+07 8.261448610369e+07 7.859539193199e+07 7.493551575067e+07 7.159360822955e+07 6.853395539471e+07 6.572566593011e+07 6.314194777404e+07 6.075948182031e+07 5.855789786666e+07 5.651933887286e+07 5.462809808241e+07 5.287031567163e+07 5.123372418224e+07 4.970743391750e+07 4.828175135103e+07 4.694802487508e+07 4.569851319783e+07 4.452627284784e+07 4.342506138360e+07 4.238925424981e+07 4.141377258689e+07 4.049402095687e+07 3.962583267465e+07 3.880542232507e+07 3.802934326674e+07 3.729444982652e+07 3.659786159617e+07 3.593692862645e+07 3.530919299848e+07 3.471231163724e+07 8.703970090729e+07 8.261449478642e+07 7.859539944273e+07 7.493552225972e+07 7.159361391972e+07 6.853396035137e+07 6.572567028163e+07 6.314195155229e+07 6.075948511853e+07 5.855790068815e+07 5.651934128510e+07 5.462810008407e+07 5.287031731017e+07 5.123372545858e+07 4.970743484830e+07 4.828175194244e+07 4.694802512179e+07 4.569851311733e+07 4.452627241748e+07 4.342506062320e+07 4.238925312287e+07 4.141377111144e+07 4.049401909518e+07 3.962583044288e+07 3.880541968351e+07 3.802934021847e+07 3.729444632893e+07 3.659785764518e+07 3.593692418179e+07 3.530918805559e+07 3.471230613660e+07 8.703971344714e+07 8.261450567159e+07 7.859540891141e+07 7.493553054460e+07 7.159362114055e+07 6.853396666428e+07 6.572567575689e+07 6.314195629460e+07 6.075948918140e+07 5.855790413837e+07 5.651934417070e+07 5.462810243479e+07 5.287031916542e+07 5.123372682386e+07 4.970743576300e+07 4.828175240572e+07 4.694802516168e+07 4.569851272863e+07 4.452627161033e+07 4.342505940288e+07 4.238925148404e+07 4.141376907142e+07 4.049401662905e+07 3.962582757519e+07 3.880541637584e+07 3.802933650214e+07 3.729444215986e+07 3.659785305242e+07 3.593691911657e+07 3.530918254257e+07 3.471230012170e+07 8.703972760312e+07 8.261451810147e+07 7.859541980729e+07 7.493554010390e+07 7.159362947600e+07 6.853397394099e+07 6.572568203457e+07 6.314196171462e+07 6.075949376204e+07 5.855790800067e+07 5.651934731034e+07 5.462810495159e+07 5.287032104813e+07 5.123372814940e+07 4.970743652834e+07 4.828175266076e+07 4.694802491050e+07 4.569851199531e+07 4.452627040897e+07 4.342505774405e+07 4.238924938697e+07 4.141376654120e+07 4.049401368145e+07 3.962582421650e+07 3.880541261849e+07 3.802933235960e+07 3.729443763758e+07 3.659784816146e+07 3.593691386027e+07 3.530917693592e+07 3.471229417009e+07 8.703974297912e+07 8.261453167253e+07 7.859543176300e+07 7.493555058671e+07 7.159363864174e+07 6.853398190479e+07 6.572568892082e+07 6.314196760938e+07 6.075949874701e+07 5.855791214797e+07 5.651935066854e+07 5.462810759303e+07 5.287032299193e+07 5.123372946856e+07 4.970743721650e+07 4.828175278517e+07 4.694802446095e+07 4.569851103297e+07 4.452626893175e+07 4.342505578959e+07 4.238924696776e+07 4.141376367243e+07 4.049401039480e+07 3.962582051009e+07 3.880540853608e+07 3.802932789208e+07 3.729443283274e+07 3.659784301791e+07 3.593690842406e+07 3.530917121065e+07 3.471228819146e+07 8.703975940066e+07 8.261454613140e+07 7.859544448553e+07 7.493556173158e+07 7.159364840048e+07 6.853399038231e+07 6.572569627081e+07 6.314197388772e+07 6.075950409124e+07 5.855791657588e+07 5.651935430109e+07 5.462811042449e+07 5.287032512956e+07 5.123373089336e+07 4.970743801590e+07 4.828175294790e+07 4.694802405314e+07 4.569851005219e+07 4.452626741855e+07 4.342505375238e+07 4.238924443301e+07 4.141376065205e+07 4.049400691810e+07 3.962581658148e+07 3.880540419401e+07 3.802932312136e+07 3.729442769033e+07 3.659783748071e+07 3.593690256011e+07 3.530916499498e+07 3.471228167572e+07 8.703977655837e+07 8.261456114168e+07 7.859545763132e+07 7.493557325360e+07 7.159365846814e+07 6.853399916768e+07 6.572570388654e+07 6.314198045713e+07 6.075950969312e+07 5.855792129480e+07 5.651935819749e+07 5.462811354083e+07 5.287032752525e+07 5.123373258240e+07 4.970743906853e+07 4.828175334702e+07 4.694802387121e+07 4.569850925532e+07 4.452626607550e+07 4.342505183498e+07 4.238924199000e+07 4.141375767550e+07 4.049400341447e+07 3.962581257507e+07 3.880539965438e+07 3.802931811138e+07 3.729442215169e+07 3.659783149132e+07 3.593689605253e+07 3.530915804146e+07 3.471227422057e+07 8.703979374950e+07 8.261457607668e+07 7.859547066664e+07 7.493558465381e+07 7.159366844137e+07 6.853400789047e+07 6.572571148628e+07 6.314198706172e+07 6.075951536591e+07 5.855792614091e+07 5.651936223210e+07 5.462811686797e+07 5.287033012035e+07 5.123373455405e+07 4.970744035908e+07 4.828175406370e+07 4.694802393991e+07 4.569850877680e+07 4.452626498182e+07 4.342505019915e+07 4.238923976259e+07 4.141375488845e+07 4.049400005403e+07 3.962580863053e+07 3.880539514530e+07 3.802931298952e+07 3.729441645524e+07 3.659782515439e+07 3.593688911657e+07 3.530915045253e+07 3.471226597290e+07 8.703980986567e+07 8.261459003869e+07 7.859548284100e+07 7.493559530433e+07 7.159367778292e+07 6.853401607721e+07 6.572571865912e+07 6.314199330737e+07 6.075952078754e+07 5.855793077535e+07 5.651936616904e+07 5.462812011206e+07 5.287033275359e+07 5.123373654862e+07 4.970744179244e+07 4.828175489487e+07 4.694802423936e+07 4.569850849706e+07 4.452626417433e+07 4.342504882142e+07 4.238923783937e+07 4.141375239513e+07 4.049399699070e+07 3.962580499120e+07 3.880539089972e+07 3.802930814178e+07 3.729441095947e+07 3.659781902012e+07 3.593688229102e+07 3.530914294434e+07 3.471225770210e+07 8.703982367390e+07 8.261460205171e+07 7.859549335418e+07 7.493560453483e+07 7.159368589642e+07 6.853402320708e+07 6.572572490547e+07 6.314199876247e+07 6.075952551559e+07 5.855793484525e+07 5.651936961303e+07 5.462812298078e+07 5.287033505854e+07 5.123373833287e+07 4.970744305365e+07 4.828175566906e+07 4.694802451608e+07 4.569850830061e+07 4.452626348837e+07 4.342504766144e+07 4.238923619571e+07 4.141375026921e+07 4.049399436984e+07 3.962580186021e+07 3.880538725271e+07 3.802930395746e+07 3.729440623337e+07 3.659781372228e+07 3.593687641160e+07 3.530913645401e+07 3.471225055906e+07 8.703983422694e+07 8.261461136354e+07 7.859550158397e+07 7.493561180609e+07 7.159369231282e+07 6.853402885307e+07 6.572572985203e+07 6.314200306861e+07 6.075952923367e+07 5.855793801420e+07 5.651937226871e+07 5.462812514978e+07 5.287033677316e+07 5.123373961219e+07 4.970744392122e+07 4.828175613296e+07 4.694802459393e+07 4.569850799700e+07 4.452626281758e+07 4.342504662518e+07 4.238923480289e+07 4.141374851907e+07 4.049399226674e+07 3.962579940457e+07 3.880538444688e+07 3.802930080060e+07 3.729440271918e+07 3.659780984465e+07 3.593687216224e+07 3.530913183268e+07 3.471224554870e+07 8.703984114335e+07 8.261461763774e+07 7.859550723429e+07 7.493561686281e+07 7.159369680762e+07 6.853403281705e+07 6.572573331678e+07 6.314200606089e+07 6.075953177813e+07 5.855794013676e+07 5.651937399517e+07 5.462812650564e+07 5.287033777600e+07 5.123374028369e+07 4.970744427491e+07 4.828175619187e+07 4.694802436970e+07 4.569850751616e+07 4.452626208960e+07 4.342504567420e+07 4.238923363310e+07 4.141374715678e+07 4.049399071807e+07 3.962579769539e+07 3.880538257984e+07 3.802929879923e+07 3.729440058860e+07 3.659780760805e+07 3.593686982631e+07 3.530912941368e+07 3.471224307041e+07 8.703984465002e+07 8.261462098461e+07 7.859551036862e+07 7.493561975481e+07 7.159369944620e+07 6.853403518163e+07 6.572573539475e+07 6.314200783938e+07 6.075953326115e+07 5.855794132538e+07 5.651937490488e+07 5.462812714250e+07 5.287033816279e+07 5.123374042701e+07 4.970744420496e+07 4.828175591799e+07 4.694802392868e+07 4.569850691171e+07 4.452626136072e+07 4.342504482669e+07 4.238923271494e+07 4.141374617265e+07 4.049398971399e+07 3.962579667351e+07 3.880538158538e+07 3.802929783534e+07 3.729439969813e+07 3.659780679938e+07 3.593686914293e+07 3.530912886893e+07 3.471224271498e+07 8.703984542624e+07 8.261462149534e+07 7.859551125038e+07 7.493562089409e+07 7.159370067128e+07 6.853403635838e+07 6.572573645537e+07 6.314200873533e+07 6.075953398040e+07 5.855794185726e+07 5.651937526056e+07 5.462812732436e+07 5.287033818602e+07 5.123374030122e+07 4.970744394859e+07 4.828175554372e+07 4.694802345453e+07 4.569850635601e+07 4.452626074761e+07 4.342504417970e+07 4.238923206146e+07 4.141374553778e+07 4.049398912991e+07 3.962579617021e+07 3.880538120765e+07 3.802929761836e+07 3.729439968681e+07 3.659780700930e+07 3.593686958807e+07 3.530912948934e+07 3.471224342619e+07 8.703984396655e+07 8.261462227666e+07 7.859551278687e+07 7.493562261002e+07 7.159370237256e+07 6.853403795971e+07 6.572573794302e+07 6.314201008970e+07 6.075953521582e+07 5.855794296623e+07 5.651937626072e+07 5.462812821213e+07 5.287033897606e+07 5.123374099537e+07 4.970744455850e+07 4.828175608041e+07 4.694802392345e+07 4.569850677481e+07 4.452626111244e+07 4.342504451641e+07 4.238923235936e+07 4.141374583471e+07 4.049398941373e+07 3.962579649225e+07 3.880538155624e+07 3.802929806187e+07 3.729440023466e+07 3.659780777958e+07 3.593687067454e+07 3.530913117774e+07 3.471224625296e+07 
        </DataArray>
        <DataArray type="Float64" Name="STRESS_2" format="ascii">
          1.046697663718e+07 1.046308292480e+07 1.045678276551e+07 1.045066600437e+07 1.044502349515e+07 1.043987458962e+07 1.043517983150e+07 1.043089144917e+07 1.042696459802e+07 1.042335976465e+07 1.042004238485e+07 1.041698245835e+07 1.041415373594e+07 1.041153330205e+07 1.040910098741e+07 1.040683904519e+07 1.040473177760e+07 1.040276526509e+07 1.040092711886e+07 1.039920624965e+07 1.039759269406e+07 1.039607737838e+07 1.039465187314e+07 1.039330798703e+07 1.039203711345e+07 1.039082900226e+07 1.038966941137e+07 1.038853563647e+07 1.038738791487e+07 1.038615313243e+07 1.038469886448e+07 1.046697734635e+07 1.046308354342e+07 1.045678330356e+07 1.045066648590e+07 1.044502391311e+07 1.043987496197e+07 1.043518014571e+07 1.043089172409e+07 1.042696482793e+07 1.042335996201e+07 1.042004254419e+07 1.041698258703e+07 1.041415383235e+07 1.041153336490e+07 1.040910102047e+07 1.040683904782e+07 1.040473176048e+07 1.040276521432e+07 1.040092704662e+07 1.039920613987e+07 1.039759257116e+07 1.039607721702e+07 1.039465169971e+07 1.039330777134e+07 1.039203688854e+07 1.039082873267e+07 1.038966913057e+07 1.038853531107e+07 1.038738757641e+07 1.038615274767e+07 1.038469844298e+07 1.046697936648e+07 1.046308529324e+07 1.045678487774e+07 1.045066784171e+07 1.044502513613e+07 1.043987600383e+07 1.043518108030e+07 1.043089250903e+07 1.042696551838e+07 1.042336052770e+07 1.042004302037e+07 1.041698295753e+07 1.041415411693e+07 1.041153355850e+07 1.040910113206e+07 1.040683907735e+07 1.040473171168e+07 1.040276508813e+07 1.040092684468e+07 1.039920586227e+07 1.039759221908e+07 1.039607678925e+07 1.039465119762e+07 1.039330719527e+07 1.039203623982e+07 1.039082800937e+07 1.038966832982e+07 1.038853442951e+07 1.038738660998e+07 1.038615169820e+07 1.038469726632e+07 1.046698241860e+07 1.046308799067e+07 1.045678729228e+07 1.045066997238e+07 1.044502703962e+07 1.043987766691e+07 1.043518256229e+07 1.043089378392e+07 1.042696663794e+07 1.042336146348e+07 1.042004381761e+07 1.041698359369e+07 1.041415462113e+07 1.041153392334e+07 1.040910136953e+07 1.040683919286e+07 1.040473169677e+07 1.040276496595e+07 1.040092659738e+07 1.039920551700e+07 1.039759174477e+07 1.039607621640e+07 1.039465050083e+07 1.039330640336e+07 1.039203532630e+07 1.039082699674e+07 1.038966719639e+07 1.038853319038e+07 1.038738524359e+07 1.038615022185e+07 1.038469562878e+07 1.046698618415e+07 1.046309138223e+07 1.045679032630e+07 1.045067271565e+07 1.044502947955e+07 1.043987985806e+07 1.043518449157e+07 1.043089549032e+07 1.042696812305e+07 1.042336274739e+07 1.042004491279e+07 1.041698449996e+07 1.041415536064e+07 1.041153448293e+07 1.040910177634e+07 1.040683943504e+07 1.040473179818e+07 1.040276491708e+07 1.040092640516e+07 1.039920518611e+07 1.039759127021e+07 1.039607561825e+07 1.039464975605e+07 1.039330554339e+07 1.039203431889e+07 1.039082588088e+07 1.038966593316e+07 1.038853181789e+07 1.038738372268e+07 1.038614858840e+07 1.038469383112e+07 1.046699043416e+07 1.046309525097e+07 1.045679382841e+07 1.045067590202e+07 1.044503233440e+07 1.043988244456e+07 1.043518677818e+07 1.043089754864e+07 1.042696990788e+07 1.042336433321e+07 1.042004625055e+07 1.041698565565e+07 1.041415629278e+07 1.041153524320e+07 1.040910233937e+07 1.040683983119e+07 1.040473201993e+07 1.040276497536e+07 1.040092630385e+07 1.039920492352e+07 1.039759085877e+07 1.039607505436e+07 1.039464904763e+07 1.039330468852e+07 1.039203332393e+07 1.039082475265e+07 1.038966466979e+07 1.038853042340e+07 1.038738219420e+07 1.038614693279e+07 1.038469204670e+07 1.046699505092e+07 1.046309946893e+07 1.045679768269e+07 1.045067939633e+07 1.044503550356e+07 1.043988529628e+07 1.043518934272e+07 1.043089983489e+07 1.042697193043e+07 1.042336611001e+07 1.042004777921e+07 1.041698697227e+07 1.041415737765e+07 1.041153614233e+07 1.040910301759e+07 1.040684033783e+07 1.040473232033e+07 1.040276511118e+07 1.040092625427e+07 1.039920471193e+07 1.039759048226e+07 1.039607451191e+07 1.039464835763e+07 1.039330383491e+07 1.039203233482e+07 1.039082360224e+07 1.038966338960e+07 1.038852899606e+07 1.038738064525e+07 1.038614524788e+07 1.038469024983e+07 1.046699998257e+07 1.046310395918e+07 1.045680178205e+07 1.045068310539e+07 1.044503887693e+07 1.043988831725e+07 1.043519207434e+07 1.043090224626e+07 1.042697408946e+07 1.042336797079e+07 1.042004941997e+07 1.041698834168e+07 1.041415854752e+07 1.041153706220e+07 1.040910375045e+07 1.040684084695e+07 1.040473264644e+07 1.040276523502e+07 1.040092619893e+07 1.039920447228e+07 1.039759006790e+07 1.039607392173e+07 1.039464760661e+07 1.039330291109e+07 1.039203126476e+07 1.039082235432e+07 1.038966201006e+07 1.038852744170e+07 1.038737897223e+07 1.038614341140e+07 1.038468829461e+07 1.046700513409e+07 1.046310862890e+07 1.045680600515e+07 1.045068692896e+07 1.044504231477e+07 1.043989141487e+07 1.043519483241e+07 1.043090469983e+07 1.042697624745e+07 1.042336985615e+07 1.042005104382e+07 1.041698970458e+07 1.041415968292e+07 1.041153794894e+07 1.040910443908e+07 1.040684129453e+07 1.040473291771e+07 1.040276527458e+07 1.040092606843e+07 1.039920412923e+07 1.039758955598e+07 1.039607322423e+07 1.039464672450e+07 1.039330186748e+07 1.039203002098e+07 1.039082097180e+07 1.038966042037e+07 1.038852572528e+07 1.038737705405e+07 1.038614136547e+07 1.038468605892e+07 1.046701029719e+07 1.046311327051e+07 1.045681018660e+07 1.045069068867e+07 1.044504568274e+07 1.043989443025e+07 1.043519750928e+07 1.043090707774e+07 1.042697831404e+07 1.042337166709e+07 1.042005256328e+07 1.041699100527e+07 1.041416070241e+07 1.041153878314e+07 1.040910500376e+07 1.040684169110e+07 1.040473305380e+07 1.040276525301e+07 1.040092581051e+07 1.039920371020e+07 1.039758892463e+07 1.039607241809e+07 1.039464573410e+07 1.039330068498e+07 1.039202867575e+07 1.039081942212e+07 1.038965871912e+07 1.038852381374e+07 1.038737498922e+07 1.038613910223e+07 1.038468359822e+07 1.046701513856e+07 1.046311760746e+07 1.045681408388e+07 1.045069418363e+07 1.044504881615e+07 1.043989721985e+07 1.043519999474e+07 1.043090926002e+07 1.042698023301e+07 1.042337330367e+07 1.042005397205e+07 1.041699215240e+07 1.041416165029e+07 1.041153948067e+07 1.040910552243e+07 1.040684197384e+07 1.040473316958e+07 1.040276514765e+07 1.040092554138e+07 1.039920323685e+07 1.039758828119e+07 1.039607158852e+07 1.039464472882e+07 1.039329951120e+07 1.039202731647e+07 1.039081789963e+07 1.038965700319e+07 1.038852193583e+07 1.038737291682e+07 1.038613686848e+07 1.038468113137e+07 1.046701928702e+07 1.046312133940e+07 1.045681744765e+07 1.045069721355e+07 1.044505153744e+07 1.043989965539e+07 1.043520215582e+07 1.043091117343e+07 1.042698190653e+07 1.042337476071e+07 1.042005520617e+07 1.041699319177e+07 1.041416248309e+07 1.041154013368e+07 1.040910597806e+07 1.040684226442e+07 1.040473327785e+07 1.040276509678e+07 1.040092531512e+07 1.039920285617e+07 1.039758773961e+07 1.039607089344e+07 1.039464387829e+07 1.039329850277e+07 1.039202615747e+07 1.039081658136e+07 1.038965553793e+07 1.038852031030e+07 1.038737114063e+07 1.038613493201e+07 1.038467900223e+07 1.046702245711e+07 1.046312423156e+07 1.045682008703e+07 1.045069961533e+07 1.044505371542e+07 1.043990162108e+07 1.043520392281e+07 1.043091275155e+07 1.042698330751e+07 1.042337599000e+07 1.042005627326e+07 1.041699409735e+07 1.041416323864e+07 1.041154074037e+07 1.040910644673e+07 1.040684259060e+07 1.040473347163e+07 1.040276515593e+07 1.040092524872e+07 1.039920266006e+07 1.039758742089e+07 1.039607045115e+07 1.039464331659e+07 1.039329782127e+07 1.039202535994e+07 1.039081567112e+07 1.038965451321e+07 1.038851916988e+07 1.038736988174e+07 1.038613356147e+07 1.038467750430e+07 1.046702453345e+07 1.046312618146e+07 1.045682190766e+07 1.045070130458e+07 1.044505527720e+07 1.043990305929e+07 1.043520523977e+07 1.043091394943e+07 1.042698439139e+07 1.042337696570e+07 1.042005714236e+07 1.041699486511e+07 1.041416390569e+07 1.041154131217e+07 1.040910691769e+07 1.040684296897e+07 1.040473375480e+07 1.040276535549e+07 1.040092535657e+07 1.039920268757e+07 1.039758735985e+07 1.039607031423e+07 1.039464309462e+07 1.039329752894e+07 1.039202498965e+07 1.039081523437e+07 1.038965400210e+07 1.038851859667e+07 1.038736924229e+07 1.038613285916e+07 1.038467675497e+07 1.046702558785e+07 1.046312721808e+07 1.045682291748e+07 1.045070227957e+07 1.044505621431e+07 1.043990395100e+07 1.043520608734e+07 1.043091474643e+07 1.042698513868e+07 1.042337765803e+07 1.042005778754e+07 1.041699545541e+07 1.041416444565e+07 1.041154179077e+07 1.040910734902e+07 1.040684334220e+07 1.040473408521e+07 1.040276562764e+07 1.040092559100e+07 1.039920286674e+07 1.039758750575e+07 1.039607040855e+07 1.039464316147e+07 1.039329754795e+07 1.039202498287e+07 1.039081518613e+07 1.038965393520e+07 1.038851849760e+07 1.038736912833e+07 1.038613271816e+07 1.038467663561e+07 1.046702584800e+07 1.046312739043e+07 1.045682314521e+07 1.045070258049e+07 1.044505657812e+07 1.043990434884e+07 1.043520650658e+07 1.043091516482e+07 1.042698555405e+07 1.042337805862e+07 1.042005817576e+07 1.041699582293e+07 1.041416479598e+07 1.041154211907e+07 1.040910765770e+07 1.040684362788e+07 1.040473435057e+07 1.040276587180e+07 1.040092581809e+07 1.039920307789e+07 1.039758770723e+07 1.039607059908e+07 1.039464334683e+07 1.039329772580e+07 1.039202516576e+07 1.039081537118e+07 1.038965413473e+07 1.038851869907e+07 1.038736933965e+07 1.038613290966e+07 1.038467683419e+07 1.046702384088e+07 1.046312657937e+07 1.045682284536e+07 1.045070249659e+07 1.044505660612e+07 1.043990442289e+07 1.043520661563e+07 1.043091528161e+07 1.042698568485e+07 1.042337818457e+07 1.042005830747e+07 1.041699594793e+07 1.041416492078e+07 1.041154223544e+07 1.040910776871e+07 1.040684373570e+07 1.040473445118e+07 1.040276597425e+07 1.040092591018e+07 1.039920317861e+07 1.039758779565e+07 1.039607070294e+07 1.039464344101e+07 1.039329785011e+07 1.039202529131e+07 1.039081554587e+07 1.038965433463e+07 1.038851899137e+07 1.038736972207e+07 1.038613348053e+07 1.038467767618e+07 
        </DataArray>
        <DataArray type="Float64" Name="STRESS_3" format="ascii">
          -5.214976428198e+07 -4.773753748551e+07 -4.373944440544e+07 -4.009995815638e+07 -3.677685959915e+07 -3.373437034719e+07 -3.094173051818e+07 -2.837230739605e+07 -2.600293128785e+07 -2.381336377919e+07 -2.178586300150e+07 -1.990482225018e+07 -1.815646917601e+07 -1.652861272923e+07 -1.501043043110e+07 -1.359228792852e+07 -1.226558593144e+07 -1.102262956790e+07 -9.856516643787e+06 -8.761041710559e+06 -7.730613388351e+06 -6.760183107788e+06 -5.845183483732e+06 -4.981475193204e+06 -4.165301450115e+06 -3.393249842117e+06 -2.662222104353e+06 -1.969413570336e+06 -1.312306761407e+06 -6.886875112326e+05 -9.665417681891e+04 -5.214975954535e+07 -4.773753529848e+07 -4.373944270366e+07 -4.009995660088e+07 -3.677685816810e+07 -3.373436899296e+07 -3.094172928464e+07 -2.837230623773e+07 -2.600293022689e+07 -2.381336278914e+07 -2.178586210031e+07 -1.990482141651e+07 -1.815646841099e+07 -1.652861203695e+07 -1.501042980114e+07 -1.359228735934e+07 -1.226558539105e+07 -1.102262908747e+07 -9.856516187796e+06 -8.761041311750e+06 -7.730612982236e+06 -6.760182753334e+06 -5.845183112078e+06 -4.981474868625e+06 -4.165301086491e+06 -3.393249523917e+06 -2.662221754597e+06 -1.969413277695e+06 -1.312306471898e+06 -6.886873426734e+05 -9.665412568628e+04 -5.214975952866e+07 -4.773753512622e+07 -4.373944233951e+07 -4.009995627830e+07 -3.677685777578e+07 -3.373436871529e+07 -3.094172899576e+07 -2.837230607728e+07 -2.600293009238e+07 -2.381336277432e+07 -2.178586213828e+07 -1.990482155731e+07 -1.815646861519e+07 -1.652861232056e+07 -1.501043014398e+07 -1.359228775986e+07 -1.226558583614e+07 -1.102262957073e+07 -9.856516698901e+06 -8.761041842701e+06 -7.730613519547e+06 -6.760183289371e+06 -5.845183631463e+06 -4.981475357084e+06 -4.165301525660e+06 -3.393249902182e+06 -2.662222060461e+06 -1.969413497819e+06 -1.312306593189e+06 -6.886873378112e+05 -9.665408283235e+04 -5.214975951197e+07 -4.773753481751e+07 -4.373944180178e+07 -4.009995568510e+07 -3.677685712098e+07 -3.373436812834e+07 -3.094172840733e+07 -2.837230560590e+07 -2.600292965872e+07 -2.381336247656e+07 -2.178586189306e+07 -1.990482143843e+07 -1.815646857307e+07 -1.652861238079e+07 -1.501043028319e+07 -1.359228796625e+07 -1.226558613256e+07 -1.102262989750e+07 -9.856517092892e+06 -8.761042233193e+06 -7.730613973639e+06 -6.760183723441e+06 -5.845184092407e+06 -4.981475765020e+06 -4.165301929190e+06 -3.393250229344e+06 -2.662222340964e+06 -1.969413677258e+06 -1.312306703172e+06 -6.886873160947e+05 -9.665404065939e+04 -5.214975949998e+07 -4.773753439750e+07 -4.373944115707e+07 -4.009995482577e+07 -3.677685620873e+07 -3.373436713741e+07 -3.094172745166e+07 -2.837230466019e+07 -2.600292877122e+07 -2.381336164708e+07 -2.178586112807e+07 -1.990482076824e+07 -1.815646796330e+07 -1.652861188076e+07 -1.501042984188e+07 -1.359228762226e+07 -1.226558583441e+07 -1.102262967168e+07 -9.856516926482e+06 -8.761042115837e+06 -7.730613916657e+06 -6.760183677257e+06 -5.845184108874e+06 -4.981475763890e+06 -4.165301979539e+06 -3.393250232535e+06 -2.662222382665e+06 -1.969413659447e+06 -1.312306707648e+06 -6.886872479009e+05 -9.665401796624e+04 -5.214975948924e+07 -4.773753393156e+07 -4.373944037924e+07 -4.009995376384e+07 -3.677685502800e+07 -3.373436579247e+07 -3.094172610732e+07 -2.837230321917e+07 -2.600292740242e+07 -2.381336022331e+07 -2.178585980851e+07 -1.990481943277e+07 -1.815646673884e+07 -1.652861067205e+07 -1.501042873044e+07 -1.359228655679e+07 -1.226558484407e+07 -1.102262874410e+07 -9.856516062801e+06 -8.761041332311e+06 -7.730613191083e+06 -6.760183026666e+06 -5.845183522683e+06 -4.981475254777e+06 -4.165301538711e+06 -3.393249850770e+06 -2.662222071607e+06 -1.969413416803e+06 -1.312306546272e+06 -6.886871599682e+05 -9.665401443304e+04 -5.214975947605e+07 -4.773753344277e+07 -4.373943948736e+07 -4.009995259894e+07 -3.677685362987e+07 -3.373436425053e+07 -3.094172444508e+07 -2.837230149309e+07 -2.600292564558e+07 -2.381335844796e+07 -2.178585807116e+07 -1.990481768545e+07 -1.815646506644e+07 -1.652860899413e+07 -1.501042715788e+07 -1.359228499239e+07 -1.226558339319e+07 -1.102262732902e+07 -9.856514750860e+06 -8.761040083160e+06 -7.730612026880e+06 -6.760181966065e+06 -5.845182536039e+06 -4.981474393733e+06 -4.165300753356e+06 -3.393249217938e+06 -2.662221534082e+06 -1.969413031032e+06 -1.312306273238e+06 -6.886870510561e+05 -9.665402535095e+04 -5.214975945875e+07 -4.773753293414e+07 -4.373943854535e+07 -4.009995138029e+07 -3.677685214404e+07 -3.373436265814e+07 -3.094172268967e+07 -2.837229973352e+07 -2.600292379304e+07 -2.381335667324e+07 -2.178585623454e+07 -1.990481595224e+07 -1.815646330448e+07 -1.652860735271e+07 -1.501042551440e+07 -1.359228345807e+07 -1.226558189835e+07 -1.102262593546e+07 -9.856513422104e+06 -8.761038844785e+06 -7.730610873355e+06 -6.760180912952e+06 -5.845181562749e+06 -4.981473544519e+06 -4.165299978140e+06 -3.393248606969e+06 -2.662220990130e+06 -1.969412675047e+06 -1.312305986019e+06 -6.886869569653e+05 -9.665402703231e+04 -5.214975944475e+07 -4.773753237868e+07 -4.373943761413e+07 -4.009995015706e+07 -3.677685075225e+07 -3.373436111811e+07 -3.094172111184e+07 -2.837229812434e+07 -2.600292220161e+07 -2.381335510762e+07 -2.178585471810e+07 -1.990481452555e+07 -1.815646191553e+07 -1.652860608595e+07 -1.501042427161e+07 -1.359228236525e+07 -1.226558081219e+07 -1.102262500670e+07 -9.856512514077e+06 -8.761038070895e+06 -7.730610136731e+06 -6.760180261408e+06 -5.845180999474e+06 -4.981473016796e+06 -4.165299584456e+06 -3.393248205381e+06 -2.662220750465e+06 -1.969412407045e+06 -1.312305872367e+06 -6.886868232124e+05 -9.665402417452e+04 -5.214975942554e+07 -4.773753184167e+07 -4.373943671131e+07 -4.009994902492e+07 -3.677684949891e+07 -3.373435978964e+07 -3.094171978869e+07 -2.837229680259e+07 -2.600292098577e+07 -2.381335391728e+07 -2.178585368784e+07 -1.990481351708e+07 -1.815646111232e+07 -1.652860527690e+07 -1.501042367989e+07 -1.359228176003e+07 -1.226558042724e+07 -1.102262460011e+07 -9.856512280127e+06 -8.761037831800e+06 -7.730610013824e+06 -6.760180161496e+06 -5.845180940381e+06 -4.981473013936e+06 -4.165299559478e+06 -3.393248249127e+06 -2.662220724841e+06 -1.969412441922e+06 -1.312305819169e+06 -6.886867784333e+05 -9.665397882440e+04 -5.214975940379e+07 -4.773753134717e+07 -4.373943589472e+07 -4.009994802557e+07 -3.677684839575e+07 -3.373435867773e+07 -3.094171867666e+07 -2.837229577395e+07 -2.600292001085e+07 -2.381335309644e+07 -2.178585292887e+07 -1.990481293740e+07 -1.815646058597e+07 -1.652860494637e+07 -1.501042338432e+07 -1.359228164875e+07 -1.226558034077e+07 -1.102262467157e+07 -9.856512369727e+06 -8.761038031908e+06 -7.730610235420e+06 -6.760180433407e+06 -5.845181227962e+06 -4.981473287203e+06 -4.165299844826e+06 -3.393248476345e+06 -2.662220948823e+06 -1.969412567338e+06 -1.312305901632e+06 -6.886867160748e+05 -9.665393084953e+04 -5.214975938384e+07 -4.773753092036e+07 -4.373943519533e+07 -4.009994715634e+07 -3.677684743830e+07 -3.373435768913e+07 -3.094171771941e+07 -2.837229485102e+07 -2.600291916048e+07 -2.381335230955e+07 -2.178585225914e+07 -1.990481234154e+07 -1.815646011489e+07 -1.652860455393e+07 -1.501042312677e+07 -1.359228145433e+07 -1.226558025659e+07 -1.102262464468e+07 -9.856512437965e+06 -8.761038140865e+06 -7.730610397016e+06 -6.760180624420e+06 -5.845181442215e+06 -4.981473517636e+06 -4.165300061135e+06 -3.393248686278e+06 -2.662221106942e+06 -1.969412687955e+06 -1.312305942828e+06 -6.886866806313e+05 -9.665388496999e+04 -5.214975936992e+07 -4.773753059168e+07 -4.373943462721e+07 -4.009994642165e+07 -3.677684659476e+07 -3.373435678281e+07 -3.094171677599e+07 -2.837229389676e+07 -2.600291820866e+07 -2.381335138088e+07 -2.178585135785e+07 -1.990481149196e+07 -1.815645931102e+07 -1.652860381096e+07 -1.501042243210e+07 -1.359228083094e+07 -1.226557968850e+07 -1.102262414389e+07 -9.856511988523e+06 -8.761037758305e+06 -7.730610066595e+06 -6.760180348568e+06 -5.845181211433e+06 -4.981473333680e+06 -4.165299913753e+06 -3.393248563545e+06 -2.662221008470e+06 -1.969412611730e+06 -1.312305889784e+06 -6.886866277649e+05 -9.665386768220e+04 -5.214975936518e+07 -4.773753036621e+07 -4.373943420874e+07 -4.009994584755e+07 -3.677684588363e+07 -3.373435595273e+07 -3.094171585087e+07 -2.837229289613e+07 -2.600291714017e+07 -2.381335025109e+07 -2.178585018731e+07 -1.990481028862e+07 -1.815645809037e+07 -1.652860257647e+07 -1.501042121596e+07 -1.359227962865e+07 -1.226557852037e+07 -1.102262299786e+07 -9.856510901033e+06 -8.761036715640e+06 -7.730609100258e+06 -6.760179442682e+06 -5.845180402684e+06 -4.981472598923e+06 -4.165299280992e+06 -3.393248018010e+06 -2.662220581611e+06 -1.969412285821e+06 -1.312305685350e+06 -6.886865498264e+05 -9.665388719361e+04 -5.214975935719e+07 -4.773753025769e+07 -4.373943397701e+07 -4.009994548956e+07 -3.677684539850e+07 -3.373435534496e+07 -3.094171510362e+07 -2.837229201795e+07 -2.600291613223e+07 -2.381334913196e+07 -2.178584894641e+07 -1.990480895778e+07 -1.815645667728e+07 -1.652860112445e+07 -1.501041970823e+07 -1.359227811067e+07 -1.226557697798e+07 -1.102262148624e+07 -9.856509390715e+06 -8.761035270885e+06 -7.730607695755e+06 -6.760178144137e+06 -5.845179175776e+06 -4.981471513659e+06 -4.165298309153e+06 -3.393247214905e+06 -2.662219914117e+06 -1.969411807381e+06 -1.312305381824e+06 -6.886864750523e+05 -9.665392961120e+04 -5.214975926625e+07 -4.773753019392e+07 -4.373943409968e+07 -4.009994562579e+07 -3.677684541089e+07 -3.373435519558e+07 -3.094171476676e+07 -2.837229151928e+07 -2.600291546689e+07 -2.381334832854e+07 -2.178584800801e+07 -1.990480791459e+07 -1.815645553274e+07 -1.652859990432e+07 -1.501041842292e+07 -1.359227678411e+07 -1.226557561930e+07 -1.102262011668e+07 -9.856508020631e+06 -8.761033920070e+06 -7.730606370692e+06 -6.760176874186e+06 -5.845177973803e+06 -4.981470417536e+06 -4.165297321795e+06 -3.393246381107e+06 -2.662219237704e+06 -1.969411345723e+06 -1.312305122584e+06 -6.886864571388e+05 -9.665397889868e+04 -5.214976449695e+07 -4.773753367876e+07 -4.373943663567e+07 -4.009994762139e+07 -3.677684701881e+07 -3.373435655007e+07 -3.094171589092e+07 -2.837229248432e+07 -2.600291626633e+07 -2.381334901766e+07 -2.178584856914e+07 -1.990480838569e+07 -1.815645590680e+07 -1.652860021057e+07 -1.501041866279e+07 -1.359227696141e+07 -1.226557575287e+07 -1.102262019398e+07 -9.856508078519e+06 -8.761033921032e+06 -7.730606373863e+06 -6.760176824913e+06 -5.845177943698e+06 -4.981470325206e+06 -4.165297251891e+06 -3.393246242308e+06 -2.662219119218e+06 -1.969411141691e+06 -1.312304934300e+06 -6.886862426401e+05 -9.665399901538e+04 
        </DataArray>
        <DataArray type="Float64" Name="STRESS_XX" format="ascii">
          -5.214975954917e+07 -4.773753537383e+07 -4.373944280327e+07 -4.009995673742e+07 -3.677685828311e+07 -3.373436910918e+07 -3.094172934759e+07 -2.837230628646e+07 -2.600293023434e+07 -2.381336277756e+07 -2.178586204801e+07 -1.990482134146e+07 -1.815646830900e+07 -1.652861190114e+07 -1.501042963940e+07 -1.359228717087e+07 -1.226558520571e+07 -1.102262887214e+07 -9.856515976214e+06 -8.761041069555e+06 -7.730612772486e+06 -6.760182515877e+06 -5.845182914973e+06 -4.981474647469e+06 -4.165300928566e+06 -3.393249348421e+06 -2.662221646992e+06 -1.969413166601e+06 -1.312306442783e+06 -6.886873240207e+05 -9.665414597035e+04 -5.081251643694e+07 -4.648519627765e+07 -4.256412747678e+07 -3.899476881711e+07 -3.573570337729e+07 -3.275183958706e+07 -3.001300995660e+07 -2.749309494469e+07 -2.516937155828e+07 -2.302199147260e+07 -2.103355487392e+07 -1.918875585594e+07 -1.747408756276e+07 -1.587759392865e+07 -1.438866105630e+07 -1.299784029090e+07 -1.169669804656e+07 -1.047768781488e+07 -9.334040355033e+06 -8.259669877647e+06 -7.249092661329e+06 -6.297357557832e+06 -5.399985085429e+06 -4.552915852524e+06 -3.752465383518e+06 -2.995287333369e+06 -2.278343264237e+06 -1.598883293517e+06 -9.544394455951e+05 -3.428426119319e+05 2.377681818356e+05 -4.685217634746e+07 -4.277630560980e+07 -3.908334810786e+07 -3.572167692609e+07 -3.265224969224e+07 -2.984200926681e+07 -2.726254199450e+07 -2.488924867170e+07 -2.270072880067e+07 -2.067828967062e+07 -1.880554419664e+07 -1.706807754048e+07 -1.545316897299e+07 -1.394955839310e+07 -1.254724964027e+07 -1.123734400925e+07 -1.001189873943e+07 -8.863806529469e+06 -7.786692082843e+06 -6.774823791152e+06 -5.823037053502e+06 -4.926668880136e+06 -4.081500490309e+06 -3.283708823219e+06 -2.529823998650e+06 -1.816694835777e+06 -1.141460555497e+06 -5.015330282675e+05 1.054086907515e+05 6.814007894103e+05 1.228183329962e+06 -4.042093228985e+07 -3.675339356031e+07 -3.343086904110e+07 -3.040646408703e+07 -2.764499278162e+07 -2.511670139254e+07 -2.279602465321e+07 -2.066083201334e+07 -1.869187078844e+07 -1.687232474968e+07 -1.518745147781e+07 -1.362428311727e+07 -1.217137555621e+07 -1.081859886911e+07 -9.556960055660e+06 -8.378453463137e+06 -7.275933438087e+06 -6.243005824193e+06 -5.273935158508e+06 -4.363564877044e+06 -3.507248746531e+06 -2.700791563556e+06 -1.940398049183e+06 -1.222628790765e+06 -5.443625244132e+05 9.723513266637e+04 7.047363521779e+05 1.280466674074e+06 1.826508195321e+06 2.344681326441e+06 2.836529822191e+06 -3.176593252791e+07 -2.864791672835e+07 -2.582391160839e+07 -2.325339080632e+07 -2.090635872971e+07 -1.875750693623e+07 -1.678510385548e+07 -1.497034080914e+07 -1.329685592723e+07 -1.175035801821e+07 -1.031831826441e+07 -8.989715932985e+06 -7.754825060601e+06 -6.605036656032e+06 -5.532707719509e+06 -4.531034512625e+06 -3.593943982718e+06 -2.716001885331e+06 -1.892333662486e+06 -1.118556775495e+06 -3.907224370415e+05 2.947348809085e+05 9.410405996831e+05 1.551117786588e+06 2.127618571996e+06 2.672951003196e+06 3.189298809850e+06 3.678634212920e+06 4.142717810148e+06 4.583079676028e+06 5.000999432667e+06 -2.121978296939e+07 -1.877136340635e+07 -1.655480636406e+07 -1.453734536814e+07 -1.269530922110e+07 -1.100880610858e+07 -9.460775878433e+06 -8.036457494109e+06 -6.723011728050e+06 -5.509223931988e+06 -4.385262831743e+06 -3.342479986393e+06 -2.373243317272e+06 -1.470796788553e+06 -6.291426656759e+05 1.570584819415e+05 8.925725512584e+05 1.581664267237e+06 2.228159106559e+06 2.835496447012e+06 3.406775289862e+06 3.944793804223e+06 4.452083179109e+06 4.930937137158e+06 5.383436356982e+06 5.811469200939e+06 6.216746280526e+06 6.600809092245e+06 6.965026684269e+06 7.310575164281e+06 7.638412552720e+06 -9.187765376517e+06 -7.503283277927e+06 -5.979759223255e+06 -4.593280102303e+06 -3.327389937946e+06 -2.168376989925e+06 -1.104510404257e+06 -1.256473837768e+05 7.770326546283e+05 1.611234039419e+06 2.383710704167e+06 3.100404347853e+06 3.766558307120e+06 4.386814492458e+06 4.965293590315e+06 5.505664449894e+06 6.011201562076e+06 6.484835457603e+06 6.929194617651e+06 7.346642476680e+06 7.739308444340e+06 8.109115239970e+06 8.457802033623e+06 8.786944470233e+06 9.097971354458e+06 9.392178009319e+06 9.670735426321e+06 9.934693557453e+06 1.018497485749e+07 1.042235147217e+07 1.064741460974e+07 3.867737364400e+06 4.723298298533e+06 5.494837134242e+06 6.196660494169e+06 6.837395421718e+06 7.424047795309e+06 7.962565947914e+06 8.458081438954e+06 8.915054555400e+06 9.337380452318e+06 9.728474251488e+06 1.009134030000e+07 1.042863038540e+07 1.074269204682e+07 1.103560966938e+07 1.130923900721e+07 1.156523663870e+07 1.180508511333e+07 1.203011432367e+07 1.224152007324e+07 1.244037978935e+07 1.262766624806e+07 1.280425921159e+07 1.297095519277e+07 1.312847564669e+07 1.327747242214e+07 1.341853100425e+07 1.355216792384e+07 1.367882114891e+07 1.379882440111e+07 1.391237092447e+07 1.744501021759e+07 1.743852105512e+07 1.742802058997e+07 1.741782515490e+07 1.740841977468e+07 1.739983666547e+07 1.739201027582e+07 1.738486090139e+07 1.737831399931e+07 1.737230357988e+07 1.736677223183e+07 1.736166980171e+07 1.735695274573e+07 1.735258268723e+07 1.734852622688e+07 1.734475359526e+07 1.734123882763e+07 1.733795852856e+07 1.733489222549e+07 1.733202130021e+07 1.732932926207e+07 1.732680091496e+07 1.732442224211e+07 1.732217961004e+07 1.732005861860e+07 1.731804226588e+07 1.731610670438e+07 1.731421421186e+07 1.731229839391e+07 1.731023751477e+07 1.730781049895e+07 3.102228636792e+07 3.015374605191e+07 2.936120547622e+07 2.863899057715e+07 2.797944437014e+07 2.737562534260e+07 2.682145407172e+07 2.631163956689e+07 2.584157239489e+07 2.540722551354e+07 2.500506881835e+07 2.463199787155e+07 2.428527348363e+07 2.396247174389e+07 2.366144100863e+07 2.338026649136e+07 2.311723914446e+07 2.287083017674e+07 2.263966822693e+07 2.242252070018e+07 2.221827684002e+07 2.202593369735e+07 2.184458340255e+07 2.167340209321e+07 2.151163974769e+07 2.135861015290e+07 2.121368057069e+07 2.107625853285e+07 2.094577378144e+07 2.082164867322e+07 2.070324814352e+07 4.407779819500e+07 4.238033386454e+07 4.083580577706e+07 3.942893332260e+07 3.814423038477e+07 3.696804963200e+07 3.588852893732e+07 3.489536616611e+07 3.397959140992e+07 3.313336857106e+07 3.234982857175e+07 3.162292973168e+07 3.094734118697e+07 3.031834472214e+07 2.973175234084e+07 2.918383616387e+07 2.867126925043e+07 2.819107476771e+07 2.774058283527e+07 2.731739314634e+07 2.691934302019e+07 2.654447953349e+07 2.619103538748e+07 2.585740766043e+07 2.554213883441e+07 2.524389942875e+07 2.496147094061e+07 2.469372776898e+07 2.443961486310e+07 2.419811646303e+07 2.396819924391e+07 5.610982856110e+07 5.364842278490e+07 5.141085850057e+07 4.937300161773e+07 4.751215060189e+07 4.580847801324e+07 4.424479228622e+07 4.280617304817e+07 4.147963166578e+07 4.025382169874e+07 3.911879670063e+07 3.806580817954e+07 3.708713657882e+07 3.617594944967e+07 3.532618184497e+07 3.453243517433e+07 3.378989120129e+07 3.309423878922e+07 3.244161113460e+07 3.182853193252e+07 3.125186892106e+07 3.070879374018e+07 3.019674701281e+07 2.971340781133e+07 2.925666665757e+07 2.882460112923e+07 2.841545300244e+07 2.802760520913e+07 2.765955603300e+07 2.730988582473e+07 2.697719437327e+07 6.665599189934e+07 6.352498560257e+07 6.067996979934e+07 5.808905025834e+07 5.572320107800e+07 5.355717789733e+07 5.156911786868e+07 4.974005267786e+07 4.805347126743e+07 4.649495032439e+07 4.505184610488e+07 4.371303752933e+07 4.246871138902e+07 4.131018203380e+07 4.022973942016e+07 3.922052049586e+07 3.827639996083e+07 3.739189708742e+07 3.656209601720e+07 3.578257727523e+07 3.504935879210e+07 3.435884486058e+07 3.370778185254e+07 3.309321950880e+07 3.251247688579e+07 3.196311186663e+07 3.144289312417e+07 3.094977285204e+07 3.048185779672e+07 3.003737432470e+07 2.961460067342e+07 7.531100392918e+07 7.163047084782e+07 6.828693254527e+07 6.524212624541e+07 6.246183579044e+07 5.991637128096e+07 5.758003625181e+07 5.543054032984e+07 5.344848167970e+07 5.161691187594e+07 4.992097355534e+07 4.834759851427e+07 4.688525531449e+07 4.552373744166e+07 4.425398473637e+07 4.306793231618e+07 4.195838217928e+07 4.091889376970e+07 3.994369026178e+07 3.902757816735e+07 3.816587797179e+07 3.735436425275e+07 3.658921359711e+07 3.586695928844e+07 3.518445137424e+07 3.453882125649e+07 3.392744932597e+07 3.334793429127e+07 3.279806156371e+07 3.227576700289e+07 3.177906497732e+07 8.174225686543e+07 7.765338888042e+07 7.393941518671e+07 7.055734078113e+07 6.746909282101e+07 6.464167806831e+07 6.204655143453e+07 5.965895403684e+07 5.745733601207e+07 5.542287260337e+07 5.353906159887e+07 5.179138794182e+07 5.016704345305e+07 4.865469149518e+07 4.724426871499e+07 4.592681716057e+07 4.469434177254e+07 4.353968873495e+07 4.245644151462e+07 4.143883143392e+07 4.048166078156e+07 3.958023615941e+07 3.873031082415e+07 3.792803423897e+07 3.716990799931e+07 3.645274654833e+07 3.577364181019e+07 3.512992978332e+07 3.451915714804e+07 3.393904386449e+07 3.338740823802e+07 8.570260142028e+07 8.136228195218e+07 7.742019583461e+07 7.383043323339e+07 7.055254627425e+07 6.755150757229e+07 6.479701793098e+07 6.226279839287e+07 5.992597637811e+07 5.776657169557e+07 5.576706925475e+07 5.391206303007e+07 5.218795863365e+07 5.058272350383e+07 4.908567651800e+07 4.768730978248e+07 4.637913740196e+07 4.515356635342e+07 4.400378615795e+07 4.292367395816e+07 4.190771291875e+07 4.095092148348e+07 4.004879220493e+07 3.919723821583e+07 3.839254652555e+07 3.763133640978e+07 3.691052214207e+07 3.622727794077e+07 3.557900345365e+07 3.496328563467e+07 3.437782197099e+07 8.703983923427e+07 8.261462016520e+07 7.859551118491e+07 7.493562119124e+07 7.159370105670e+07 6.853403672186e+07 6.572573677259e+07 6.314200898026e+07 6.075953416245e+07 5.855794196472e+07 5.651937530735e+07 5.462812730351e+07 5.287033810915e+07 5.123374016738e+07 4.970744376688e+07 4.828175532284e+07 4.694802319780e+07 4.569850607911e+07 4.452626044492e+07 4.342504387545e+07 4.238923174354e+07 4.141374524283e+07 4.049398884500e+07 3.962579594654e+07 3.880538103471e+07 3.802929756818e+07 3.729439977731e+07 3.659780737584e+07 3.593687035592e+07 3.530913099054e+07 3.471224622212e+07 
        </DataArray>
        <DataArray type="Float64" Name="STRESS_XY" format="ascii">
          -2.566628116730e+04 -1.659103797018e+04 -1.400003400920e+04 -1.277618740584e+04 -1.194238121141e+04 -1.125211712199e+04 -1.063758173376e+04 -1.007685334816e+04 -9.560584488502e+03 -9.083263312886e+03 -8.640799432884e+03 -8.229806475375e+03 -7.847351778841e+03 -7.490855343718e+03 -7.158022482862e+03 -6.846806985151e+03 -6.555369387900e+03 -6.282048511748e+03 -6.025316723770e+03 -5.783727487300e+03 -5.555814758606e+03 -5.339913537354e+03 -5.133795077247e+03 -4.933939194069e+03 -4.734061547090e+03 -4.522187765510e+03 -4.274881584661e+03 -3.946005829169e+03 -3.445068694063e+03 -2.596003286754e+03 -1.036246411221e+03 -1.357725690478e+07 -1.271520989738e+07 -1.193317318668e+07 -1.122115653877e+07 -1.057101807479e+07 -9.975784121065e+06 -9.429440922579e+06 -8.926777186887e+06 -8.463258167614e+06 -8.034922709600e+06 -7.638298316368e+06 -7.270330522743e+06 -6.928323950291e+06 -6.609892794676e+06 -6.312919140665e+06 -6.035517650566e+06 -5.776005586080e+06 -5.532877229323e+06 -5.304782001010e+06 -5.090505675415e+06 -4.888954186771e+06 -4.699139660479e+06 -4.520168297633e+06 -4.351229896820e+06 -4.191588744212e+06 -4.040575784337e+06 -3.897581939894e+06 -3.762052669340e+06 -3.633483906341e+06 -3.511419921855e+06 -3.395446612615e+06 -2.663274869848e+07 -2.494178215238e+07 -2.340776159071e+07 -2.201109042890e+07 -2.073579774832e+07 -1.956820419848e+07 -1.849651334353e+07 -1.751050286836e+07 -1.660127752069e+07 -1.576106723504e+07 -1.498306045051e+07 -1.426126562506e+07 -1.359039556428e+07 -1.296577035625e+07 -1.238323555473e+07 -1.183909294078e+07 -1.133004169805e+07 -1.085312825927e+07 -1.040570336654e+07 -9.985385226408e+06 -9.590027750965e+06 -9.217693158273e+06 -8.866628202680e+06 -8.535243613310e+06 -8.222096231247e+06 -7.925873658261e+06 -7.645381149245e+06 -7.379530933699e+06 -7.127334246381e+06 -6.887897137555e+06 -6.660407338616e+06 -3.866476101558e+07 -3.620985704439e+07 -3.398280358907e+07 -3.195515075189e+07 -3.010371228975e+07 -2.840862883871e+07 -2.685277458199e+07 -2.542130902313e+07 -2.410131822866e+07 -2.288152181371e+07 -2.175203089853e+07 -2.070414712581e+07 -1.973019467161e+07 -1.882337935500e+07 -1.797766984794e+07 -1.718769716679e+07 -1.644866927545e+07 -1.575629824347e+07 -1.510673795252e+07 -1.449653056834e+07 -1.392256047001e+07 -1.338201441711e+07 -1.287234709824e+07 -1.239125124406e+07 -1.193663172616e+07 -1.150658322667e+07 -1.109937124732e+07 -1.071341658750e+07 -1.034728379296e+07 -9.999675046162e+06 -9.669411186896e+06 -4.921091068920e+07 -4.608640910896e+07 -4.325190657330e+07 -4.067119311674e+07 -3.831475821847e+07 -3.615732563216e+07 -3.417709832037e+07 -3.235518787006e+07 -3.067515795411e+07 -2.912265134795e+07 -2.768508188324e+07 -2.635137865226e+07 -2.511177216294e+07 -2.395761507951e+07 -2.288123095305e+07 -2.187578637883e+07 -2.093518222752e+07 -2.005396101409e+07 -1.922722754980e+07 -1.845058084855e+07 -1.772005547625e+07 -1.703207084897e+07 -1.638338741614e+07 -1.577106856245e+07 -1.519244771539e+07 -1.464509984277e+07 -1.412681737287e+07 -1.363559034023e+07 -1.316959177994e+07 -1.272716986581e+07 -1.230682389897e+07 -5.786591501098e+07 -5.419188807011e+07 -5.085886427094e+07 -4.782426511045e+07 -4.505338986412e+07 -4.251651673690e+07 -4.018801513281e+07 -3.804567455023e+07 -3.607016794173e+07 -3.424461292947e+07 -3.255420979090e+07 -3.098594045125e+07 -2.952831723927e+07 -2.817117191978e+07 -2.690547797216e+07 -2.572320013427e+07 -2.461716659276e+07 -2.358096002077e+07 -2.260882428095e+07 -2.169558436704e+07 -2.083657740532e+07 -2.002759309120e+07 -1.926482210741e+07 -1.854481136658e+07 -1.786442529938e+07 -1.722081237404e+07 -1.661137676463e+07 -1.603375500112e+07 -1.548579879998e+07 -1.496556581902e+07 -1.447129146074e+07 -6.429716670420e+07 -6.021480474954e+07 -5.651134549731e+07 -5.313947821832e+07 -5.006064547364e+07 -4.724182215120e+07 -4.465452901614e+07 -4.227408706327e+07 -4.007902120433e+07 -3.805057272131e+07 -3.617229704229e+07 -3.442972921795e+07 -3.281010485986e+07 -3.130212557903e+07 -2.989576168543e+07 -2.858208481490e+07 -2.735312612617e+07 -2.620175501493e+07 -2.512157563814e+07 -2.410683780397e+07 -2.315236042588e+07 -2.225346525566e+07 -2.140591959857e+07 -2.060588660094e+07 -1.984988219022e+07 -1.913473793450e+07 -1.845756948248e+07 -1.781575070442e+07 -1.720689454477e+07 -1.662884279903e+07 -1.607963474264e+07 -6.825751592456e+07 -6.392370144995e+07 -5.999212827263e+07 -5.641257157110e+07 -5.314409890897e+07 -5.015165101751e+07 -4.740499440663e+07 -4.487793002003e+07 -4.254765994011e+07 -4.039427006658e+07 -3.840030283234e+07 -3.655040240030e+07 -3.483101808186e+07 -3.323015563283e+07 -3.173716751278e+07 -3.034257547559e+07 -2.903791979824e+07 -2.781563069496e+07 -2.666891834997e+07 -2.559167840077e+07 -2.457841062978e+07 -2.362414863370e+07 -2.272439899995e+07 -2.187508856172e+07 -2.107251862099e+07 -2.031332562534e+07 -1.959444751077e+07 -1.891309645410e+07 -1.826673830258e+07 -1.765308198785e+07 -1.707004594907e+07 -6.959476800156e+07 -6.517604676018e+07 -6.116744762272e+07 -5.751776170533e+07 -5.418525461020e+07 -5.113418014289e+07 -4.833371249919e+07 -4.575713929073e+07 -4.338121594736e+07 -4.118563820121e+07 -3.915260645779e+07 -3.726646403318e+07 -3.551339472038e+07 -3.388116933417e+07 -3.235893167006e+07 -3.093701785613e+07 -2.960680234170e+07 -2.836056713101e+07 -2.719138929478e+07 -2.609304495293e+07 -2.505992606336e+07 -2.408696896845e+07 -2.316959220697e+07 -2.230364279593e+07 -2.148534961942e+07 -2.071128315838e+07 -1.997832145108e+07 -1.928362194918e+07 -1.862460096245e+07 -1.799892243233e+07 -1.740446412237e+07 -6.825753210582e+07 -6.392371304913e+07 -5.999213617676e+07 -5.641257647030e+07 -5.314410137379e+07 -5.015165147398e+07 -4.740499324910e+07 -4.487792752427e+07 -4.254765637761e+07 -4.039426560066e+07 -3.840029766760e+07 -3.655039663444e+07 -3.483101185992e+07 -3.323014900509e+07 -3.173716059382e+07 -3.034256829604e+07 -2.903791243649e+07 -2.781562316921e+07 -2.666891071702e+07 -2.559167067526e+07 -2.457840284276e+07 -2.362414079458e+07 -2.272439112964e+07 -2.187508066557e+07 -2.107251071271e+07 -2.031331770229e+07 -1.959443958727e+07 -1.891308852020e+07 -1.826673037057e+07 -1.765307404192e+07 -1.707003806912e+07 -6.429719630434e+07 -6.021482603808e+07 -5.651136003611e+07 -5.313948727467e+07 -5.006065005253e+07 -4.724182308400e+07 -4.465452695095e+07 -4.227408256746e+07 -4.007901470521e+07 -3.805056461297e+07 -3.617228758849e+07 -3.442971870309e+07 -3.281009344938e+07 -3.130211347804e+07 -2.989574899003e+07 -2.858207168162e+07 -2.735311261990e+07 -2.620174124396e+07 -2.512156164305e+07 -2.410682365465e+07 -2.315234615226e+07 -2.225345089221e+07 -2.140590517038e+07 -2.060587212722e+07 -1.984986769269e+07 -1.913472341954e+07 -1.845755496191e+07 -1.781573617916e+07 -1.720688001396e+07 -1.662882825572e+07 -1.607962030949e+07 -5.786595308168e+07 -5.419191554248e+07 -5.085888310155e+07 -4.782427690340e+07 -4.505339589027e+07 -4.251651805593e+07 -4.018801258221e+07 -3.804566884428e+07 -3.607015964263e+07 -3.424460252397e+07 -3.255419765451e+07 -3.098592690712e+07 -2.952830254773e+07 -2.817115630160e+07 -2.690546161018e+07 -2.572318317483e+07 -2.461714917122e+07 -2.358094223558e+07 -2.260880621773e+07 -2.169556608586e+07 -2.083655896355e+07 -2.002757453514e+07 -1.926480346451e+07 -1.854479267104e+07 -1.786440656548e+07 -1.722079363201e+07 -1.661135801021e+07 -1.603373625050e+07 -1.548578004294e+07 -1.496554705758e+07 -1.447127283424e+07 -4.921095103210e+07 -4.608643830209e+07 -4.325192664999e+07 -4.067120573430e+07 -3.831476472342e+07 -3.615732712193e+07 -3.417709569999e+07 -3.235518186780e+07 -3.067514918389e+07 -2.912264029861e+07 -2.768506897921e+07 -2.635136422070e+07 -2.511175649913e+07 -2.395759841042e+07 -2.288121348675e+07 -2.187576827170e+07 -2.093516361848e+07 -2.005394201254e+07 -1.922720824246e+07 -1.845056130934e+07 -1.772003575528e+07 -1.703205100338e+07 -1.638336747611e+07 -1.577104857009e+07 -1.519242768441e+07 -1.464507980133e+07 -1.412679732233e+07 -1.363557029485e+07 -1.316957173372e+07 -1.272714981906e+07 -1.230680399006e+07 -3.866479721753e+07 -3.620988328279e+07 -3.398282167247e+07 -3.195516214089e+07 -3.010371818523e+07 -2.840863020119e+07 -2.685277222725e+07 -2.542130359733e+07 -2.410131027896e+07 -2.288151177578e+07 -2.175201915506e+07 -2.070413398249e+07 -1.973018038859e+07 -1.882336414826e+07 -1.797765390524e+07 -1.718768064165e+07 -1.644865228640e+07 -1.575628089220e+07 -1.510672032138e+07 -1.449651272360e+07 -1.392254245854e+07 -1.338199628217e+07 -1.287232888145e+07 -1.239123297505e+07 -1.193661342593e+07 -1.150656490670e+07 -1.109935292235e+07 -1.071339825921e+07 -1.034726546299e+07 -9.999656709066e+06 -9.669392963109e+06 -2.663277510126e+07 -2.494180133033e+07 -2.340777483238e+07 -2.201109878592e+07 -2.073580206864e+07 -1.956820516647e+07 -1.849651152882e+07 -1.751049874542e+07 -1.660127148861e+07 -1.576105962216e+07 -1.498305153071e+07 -1.426125563492e+07 -1.359038470587e+07 -1.296575879786e+07 -1.238322343576e+07 -1.183908038070e+07 -1.133002879533e+07 -1.085311508608e+07 -1.040568998152e+07 -9.985371678813e+06 -9.590014087165e+06 -9.217679406616e+06 -8.866614388665e+06 -8.535229753860e+06 -8.222082345259e+06 -7.925859748312e+06 -7.645367217943e+06 -7.379516978231e+06 -7.127320269450e+06 -6.887883134605e+06 -6.660393380905e+06 -1.357726935121e+07 -1.271521921812e+07 -1.193317982897e+07 -1.122116076413e+07 -1.057102020071e+07 -9.975784470075e+06 -9.429439779625e+06 -8.926774806198e+06 -8.463254755341e+06 -8.034918450086e+06 -7.638293358103e+06 -7.270324999593e+06 -6.928317966907e+06 -6.609886446363e+06 -6.312912502368e+06 -6.035510789075e+06 -5.775998553896e+06 -5.532870068980e+06 -5.304774745470e+06 -5.090498348792e+06 -4.888946813975e+06 -4.699132257876e+06 -4.520160881937e+06 -4.351222471819e+06 -4.191581316808e+06 -4.040568344785e+06 -3.897574476450e+06 -3.762045148881e+06 -3.633476296030e+06 -3.511412173879e+06 -3.395438766085e+06 -2.566485156830e+04 -1.659015539326e+04 -1.399916715831e+04 -1.277534283944e+04 -1.194157243915e+04 -1.125135538208e+04 -1.063686962032e+04 -1.007619194799e+04 -9.559970485302e+03 -9.082694470579e+03 -8.640274116666e+03 -8.229323866749e+03 -7.846909800270e+03 -7.490450177409e+03 -7.157651587794e+03 -6.846468779051e+03 -6.555063511151e+03 -6.281773022064e+03 -6.025069967871e+03 -5.783507527878e+03 -5.555621372252e+03 -5.339746299554e+03 -5.133654559347e+03 -4.933824554400e+03 -4.733972921635e+03 -4.522125007907e+03 -4.274845074277e+03 -3.945991298653e+03 -3.445062571361e+03 -2.595967479954e+03 -1.036045715386e+03 
        </DataArray>
        <DataArray type="Float64" Name="STRESS_YY" format="ascii">
          8.703968167309e+07 8.261447845649e+07 7.859538535497e+07 7.493551008531e+07 7.159360326695e+07 6.853395107458e+07 6.572566211926e+07 6.314194445035e+07 6.075947889441e+07 5.855789532639e+07 5.651933666418e+07 5.462809620262e+07 5.287031409545e+07 5.123372290797e+07 4.970743293078e+07 4.828175065483e+07 4.694802446436e+07 4.569851308912e+07 4.452627303910e+07 4.342506190172e+07 4.238925508603e+07 4.141377377714e+07 4.049402249210e+07 3.962583460423e+07 3.880542464007e+07 3.802934602262e+07 3.729445301822e+07 3.659786528818e+07 3.593693282567e+07 3.530919776547e+07 3.471231702757e+07 8.570244092476e+07 8.136214142239e+07 7.742007182199e+07 7.383032377011e+07 7.055244975432e+07 6.755142279363e+07 6.479694377562e+07 6.226273402500e+07 5.992592098471e+07 5.776652467931e+07 5.576703002122e+07 5.391203114604e+07 5.218793367059e+07 5.058270514498e+07 4.908566445788e+07 4.768730378365e+07 4.637913724817e+07 4.515357186263e+07 4.400379717710e+07 4.292369034388e+07 4.190773456520e+07 4.095094828122e+07 4.004882408445e+07 3.919727509031e+07 3.839258834532e+07 3.763138310894e+07 3.691057369946e+07 3.622733433040e+07 3.557906470030e+07 3.496335177084e+07 3.437789329477e+07 8.174210756905e+07 7.765325658727e+07 7.393929770034e+07 7.055723639847e+07 6.746900014601e+07 6.464159594623e+07 6.204647892885e+07 5.965889036845e+07 5.745728052860e+07 5.542282476296e+07 5.353902093122e+07 5.179135406558e+07 5.016701602943e+07 4.865467025478e+07 4.724425341379e+07 4.592680760043e+07 4.469433777837e+07 4.353969015657e+07 4.245644823178e+07 4.143884333205e+07 4.048167778377e+07 3.958025817765e+07 3.873033781572e+07 3.792806614078e+07 3.716994479806e+07 3.645278820033e+07 3.577368832155e+07 3.512998112662e+07 3.451921334251e+07 3.393910487126e+07 3.338747422444e+07 7.531087368517e+07 7.163035352921e+07 6.828682668205e+07 6.524203066165e+07 6.246174958035e+07 5.991629361557e+07 5.757996652752e+07 5.543047795973e+07 5.344842624825e+07 5.161686296126e+07 4.992093086986e+07 4.834756176290e+07 4.688522429331e+07 4.552371194690e+07 4.425396462076e+07 4.306791743933e+07 4.195837242732e+07 4.091888904402e+07 3.994369048309e+07 3.902758326705e+07 3.816588789576e+07 3.735437895156e+07 3.658923305196e+07 3.586698346862e+07 3.518448027873e+07 3.453885485646e+07 3.392748763579e+07 3.334797729385e+07 3.279810928330e+07 3.227581941305e+07 3.177912227375e+07 6.665588647507e+07 6.352488800244e+07 6.067987936273e+07 5.808896652514e+07 5.572312366153e+07 5.355710646309e+07 5.156905216070e+07 4.973999244355e+07 4.805341633741e+07 4.649490050950e+07 4.505180130704e+07 4.371299759953e+07 4.246867626273e+07 4.131015159913e+07 4.022971364064e+07 3.922049929609e+07 3.827638330999e+07 3.739188494228e+07 3.656208834634e+07 3.578257406254e+07 3.504936000442e+07 3.435885051325e+07 3.370779192049e+07 3.309323402471e+07 3.251249582430e+07 3.196313526641e+07 3.144292096735e+07 3.094980518006e+07 3.048189459877e+07 3.003741561864e+07 2.961464667107e+07 5.610975108327e+07 5.364834757627e+07 5.141078579211e+07 4.937293170820e+07 4.751208366910e+07 4.580841425710e+07 4.424473180569e+07 4.280611598956e+07 4.147957808766e+07 4.025377170935e+07 3.911875033357e+07 3.806576550521e+07 3.708709762656e+07 3.617591426590e+07 3.532615046358e+07 3.453240762203e+07 3.378986751517e+07 3.309421898397e+07 3.244159523961e+07 3.182851996472e+07 3.125186090602e+07 3.070878971031e+07 3.019674697966e+07 2.971341182457e+07 2.925667472279e+07 2.882461330789e+07 2.841546928544e+07 2.802762565242e+07 2.765958062973e+07 2.730991461167e+07 2.697722760293e+07 4.407774887959e+07 4.238028150768e+07 4.083575149890e+07 3.942887809007e+07 3.814417494982e+07 3.696799464418e+07 3.588847488000e+07 3.489531350007e+07 3.397954044681e+07 3.313331966060e+07 3.234978189321e+07 3.162288555972e+07 3.094729961837e+07 3.031830598197e+07 2.973171646831e+07 2.918380334288e+07 2.867123950569e+07 2.819104824635e+07 2.774055956324e+07 2.731737322975e+07 2.691932649654e+07 2.654446646640e+07 2.619102582514e+07 2.585740164612e+07 2.554213642827e+07 2.524390066482e+07 2.496147587233e+07 2.469373642942e+07 2.443962729333e+07 2.419813268742e+07 2.396821955637e+07 3.102226257750e+07 3.015371489873e+07 2.936116880594e+07 2.863894985712e+07 2.797940083472e+07 2.737557992887e+07 2.682140763323e+07 2.631159271525e+07 2.584152574280e+07 2.540717945033e+07 2.500502381507e+07 2.463195417225e+07 2.428523143968e+07 2.396243149383e+07 2.366140283212e+07 2.338023048262e+07 2.311720551609e+07 2.287079900340e+07 2.263963967277e+07 2.242249483436e+07 2.221825377030e+07 2.202591349103e+07 2.184456614376e+07 2.167338784420e+07 2.151162856919e+07 2.135860209225e+07 2.121367569595e+07 2.107625688183e+07 2.094577542518e+07 2.082165363691e+07 2.070325672422e+07 1.744500689603e+07 1.743850770788e+07 1.742799942721e+07 1.741779794165e+07 1.740838794121e+07 1.739980138410e+07 1.739197249888e+07 1.738482143139e+07 1.737827349220e+07 1.737226260730e+07 1.736673124756e+07 1.736162921357e+07 1.735691286399e+07 1.735254380922e+07 1.734848857005e+07 1.734471738650e+07 1.734120423139e+07 1.733792572006e+07 1.733486133593e+07 1.733199246388e+07 1.732930259120e+07 1.732677649913e+07 1.732440017289e+07 1.732215994823e+07 1.732004145132e+07 1.731802764012e+07 1.731609469685e+07 1.731420487241e+07 1.731229178625e+07 1.731023370347e+07 1.730780969745e+07 3.867747956035e+06 4.723298183111e+06 5.494828479115e+06 6.196645051740e+06 6.837374572319e+06 7.424022758232e+06 7.962537625865e+06 8.458050692245e+06 8.915021985245e+06 9.337346710091e+06 9.728439725909e+06 1.009130547934e+07 1.042859552440e+07 1.074265753326e+07 1.103557567056e+07 1.130920581231e+07 1.156520436821e+07 1.180505399995e+07 1.203008447477e+07 1.224149166717e+07 1.244035290874e+07 1.262764102961e+07 1.280423571110e+07 1.297093352339e+07 1.312845583813e+07 1.327745458750e+07 1.341851515971e+07 1.355215417961e+07 1.367880951596e+07 1.379881500088e+07 1.391236385056e+07 -9.187747733124e+06 -7.503275173017e+06 -5.979758830785e+06 -4.593286043834e+06 -3.327400997601e+06 -2.168392232517e+06 -1.104528954861e+06 -1.256686326893e+05 7.770093667697e+05 1.611209107844e+06 2.383684668424e+06 3.100377442981e+06 3.766530980649e+06 4.386786880109e+06 4.965266067272e+06 5.505637082262e+06 6.011174648154e+06 6.484809057773e+06 6.929168969335e+06 7.346617643175e+06 7.739284583764e+06 8.109092428233e+06 8.457780375261e+06 8.786924043564e+06 9.097952220488e+06 9.392160236685e+06 9.670719070045e+06 9.934678683794e+06 1.018496152629e+07 1.042233976524e+07 1.064740452733e+07 -2.121976427104e+07 -1.877135165355e+07 -1.655480034173e+07 -1.453734423924e+07 -1.269531214377e+07 -1.100881249529e+07 -9.460785100159e+06 -8.036469136723e+06 -6.723025310668e+06 -5.509239163046e+06 -4.385279346730e+06 -3.342497540305e+06 -2.373261635177e+06 -1.470815670728e+06 -6.291619180833e+05 1.570390404077e+05 8.925530581942e+05 1.581644866713e+06 2.228139915800e+06 2.835477588053e+06 3.406756877627e+06 3.944775904616e+06 4.452065914822e+06 4.930920531244e+06 5.383420533997e+06 5.811454141956e+06 6.216732123987e+06 6.600795825196e+06 6.965014435764e+06 7.310563948652e+06 7.638402300815e+06 -3.176591704232e+07 -2.864790483070e+07 -2.582390284258e+07 -2.325338487390e+07 -2.090635535994e+07 -1.875750582708e+07 -1.678510479265e+07 -1.497034350601e+07 -1.329686024242e+07 -1.175036369107e+07 -1.031832519402e+07 -8.989723871504e+06 -7.754833926874e+06 -6.605046232558e+06 -5.532717931049e+06 -4.531045193846e+06 -3.593955055406e+06 -2.716013234304e+06 -1.892345188146e+06 -1.118568408356e+06 -3.907340557986e+05 2.947233099221e+05 9.410292027667e+05 1.551106562080e+06 2.127607647344e+06 2.672940370432e+06 3.189288586542e+06 3.678624380877e+06 4.142708475733e+06 4.583070880216e+06 5.000991007600e+06 -4.042092215102e+07 -3.675338357630e+07 -3.343085951973e+07 -3.040645523015e+07 -2.764498486645e+07 -2.511669441665e+07 -2.279601878590e+07 -2.066082716507e+07 -1.869186704174e+07 -1.687232199026e+07 -1.518744974748e+07 -1.362428229725e+07 -1.217137562886e+07 -1.081859973444e+07 -9.556961677420e+06 -8.378455752967e+06 -7.275936329948e+06 -6.243009251404e+06 -5.273939073212e+06 -4.363569208788e+06 -3.507253438949e+06 -2.700796538656e+06 -1.940403281724e+06 -1.222634191971e+06 -5.443680753917e+05 9.722952472421e+04 7.047306810266e+05 1.280461030959e+06 1.826502577250e+06 2.344675860968e+06 2.836524205901e+06 -4.685217157261e+07 -4.277629815350e+07 -3.908333879510e+07 -3.572166651588e+07 -3.265223877331e+07 -2.984199823163e+07 -2.726253114341e+07 -2.488923821541e+07 -2.270071888314e+07 -2.067828040994e+07 -1.880553564041e+07 -1.706806975710e+07 -1.545316196754e+07 -1.394955219262e+07 -1.254724421826e+07 -1.123733935325e+07 -1.001189482184e+07 -8.863803309476e+06 -7.786689544623e+06 -6.774821878121e+06 -5.823035762373e+06 -4.926668130899e+06 -4.081500285933e+06 -3.283709079126e+06 -2.529824723084e+06 -1.816695927888e+06 -1.141462026172e+06 -5.015347913193e+05 1.054066130738e+05 6.813985293868e+05 1.228180547350e+06 -5.081251526029e+07 -4.648519065076e+07 -4.256411868391e+07 -3.899475796509e+07 -3.573569101386e+07 -3.275182640949e+07 -3.001299624238e+07 -2.749308117682e+07 -2.516935786460e+07 -2.302197816685e+07 -2.103354200220e+07 -1.918874362030e+07 -1.747407598037e+07 -1.587758310693e+07 -1.438865099232e+07 -1.299783102287e+07 -1.169668956673e+07 -1.047768011410e+07 -9.334033430966e+06 -8.259663698531e+06 -7.249087227981e+06 -6.297352819885e+06 -5.399981048825e+06 -4.552912463151e+06 -3.752462639699e+06 -2.995285172529e+06 -2.278341692964e+06 -1.598882277194e+06 -9.544389881655e+05 -3.428426024675e+05 2.377674762959e+05 -5.214975976467e+07 -4.773753156730e+07 -4.373943503370e+07 -4.009994620262e+07 -3.677684570295e+07 -3.373435531222e+07 -3.094171472049e+07 -2.837229137488e+07 -2.600291521296e+07 -2.381334801616e+07 -2.178584761577e+07 -1.990480747707e+07 -1.815645503989e+07 -1.652859938258e+07 -1.501041787117e+07 -1.359227620384e+07 -1.226557502721e+07 -1.102261949828e+07 -9.856507411001e+06 -8.761033280076e+06 -7.730605758040e+06 -6.760176233039e+06 -5.845177374969e+06 -4.981469779496e+06 -4.165296730360e+06 -3.393245748624e+06 -2.662218661864e+06 -1.969410737958e+06 -1.312304615676e+06 -6.886860554330e+05 -9.665396817871e+04 
        </DataArray>
        <DataArray type="Float64" Name="STRESS_ZZ" format="ascii">
          1.046697663718e+07 1.046308292480e+07 1.045678276551e+07 1.045066600437e+07 1.044502349515e+07 1.043987458962e+07 1.043517983150e+07 1.043089144917e+07 1.042696459802e+07 1.042335976465e+07 1.042004238485e+07 1.041698245835e+07 1.041415373594e+07 1.041153330205e+07 1.040910098741e+07 1.040683904519e+07 1.040473177760e+07 1.040276526509e+07 1.040092711886e+07 1.039920624965e+07 1.039759269406e+07 1.039607737838e+07 1.039465187314e+07 1.039330798703e+07 1.039203711345e+07 1.039082900226e+07 1.038966941137e+07 1.038853563647e+07 1.038738791487e+07 1.038615313243e+07 1.038469886448e+07 1.046697734635e+07 1.046308354342e+07 1.045678330356e+07 1.045066648590e+07 1.044502391311e+07 1.043987496197e+07 1.043518014571e+07 1.043089172409e+07 1.042696482793e+07 1.042335996201e+07 1.042004254419e+07 1.041698258703e+07 1.041415383235e+07 1.041153336490e+07 1.040910102047e+07 1.040683904782e+07 1.040473176048e+07 1.040276521432e+07 1.040092704662e+07 1.039920613987e+07 1.039759257116e+07 1.039607721702e+07 1.039465169971e+07 1.039330777134e+07 1.039203688854e+07 1.039082873267e+07 1.038966913057e+07 1.038853531107e+07 1.038738757641e+07 1.038615274767e+07 1.038469844298e+07 1.046697936648e+07 1.046308529324e+07 1.045678487774e+07 1.045066784171e+07 1.044502513613e+07 1.043987600383e+07 1.043518108030e+07 1.043089250903e+07 1.042696551838e+07 1.042336052770e+07 1.042004302037e+07 1.041698295753e+07 1.041415411693e+07 1.041153355850e+07 1.040910113206e+07 1.040683907735e+07 1.040473171168e+07 1.040276508813e+07 1.040092684468e+07 1.039920586227e+07 1.039759221908e+07 1.039607678925e+07 1.039465119762e+07 1.039330719527e+07 1.039203623982e+07 1.039082800937e+07 1.038966832982e+07 1.038853442951e+07 1.038738660998e+07 1.038615169820e+07 1.038469726632e+07 1.046698241860e+07 1.046308799067e+07 1.045678729228e+07 1.045066997238e+07 1.044502703962e+07 1.043987766691e+07 1.043518256229e+07 1.043089378392e+07 1.042696663794e+07 1.042336146348e+07 1.042004381761e+07 1.041698359369e+07 1.041415462113e+07 1.041153392334e+07 1.040910136953e+07 1.040683919286e+07 1.040473169677e+07 1.040276496595e+07 1.040092659738e+07 1.039920551700e+07 1.039759174477e+07 1.039607621640e+07 1.039465050083e+07 1.039330640336e+07 1.039203532630e+07 1.039082699674e+07 1.038966719639e+07 1.038853319038e+07 1.038738524359e+07 1.038615022185e+07 1.038469562878e+07 1.046698618415e+07 1.046309138223e+07 1.045679032630e+07 1.045067271565e+07 1.044502947955e+07 1.043987985806e+07 1.043518449157e+07 1.043089549032e+07 1.042696812305e+07 1.042336274739e+07 1.042004491279e+07 1.041698449996e+07 1.041415536064e+07 1.041153448293e+07 1.040910177634e+07 1.040683943504e+07 1.040473179818e+07 1.040276491708e+07 1.040092640516e+07 1.039920518611e+07 1.039759127021e+07 1.039607561825e+07 1.039464975605e+07 1.039330554339e+07 1.039203431889e+07 1.039082588088e+07 1.038966593316e+07 1.038853181789e+07 1.038738372268e+07 1.038614858840e+07 1.038469383112e+07 1.046699043416e+07 1.046309525097e+07 1.045679382841e+07 1.045067590202e+07 1.044503233440e+07 1.043988244456e+07 1.043518677818e+07 1.043089754864e+07 1.042696990788e+07 1.042336433321e+07 1.042004625055e+07 1.041698565565e+07 1.041415629278e+07 1.041153524320e+07 1.040910233937e+07 1.040683983119e+07 1.040473201993e+07 1.040276497536e+07 1.040092630385e+07 1.039920492352e+07 1.039759085877e+07 1.039607505436e+07 1.039464904763e+07 1.039330468852e+07 1.039203332393e+07 1.039082475265e+07 1.038966466979e+07 1.038853042340e+07 1.038738219420e+07 1.038614693279e+07 1.038469204670e+07 1.046699505092e+07 1.046309946893e+07 1.045679768269e+07 1.045067939633e+07 1.044503550356e+07 1.043988529628e+07 1.043518934272e+07 1.043089983489e+07 1.042697193043e+07 1.042336611001e+07 1.042004777921e+07 1.041698697227e+07 1.041415737765e+07 1.041153614233e+07 1.040910301759e+07 1.040684033783e+07 1.040473232033e+07 1.040276511118e+07 1.040092625427e+07 1.039920471193e+07 1.039759048226e+07 1.039607451191e+07 1.039464835763e+07 1.039330383491e+07 1.039203233482e+07 1.039082360224e+07 1.038966338960e+07 1.038852899606e+07 1.038738064525e+07 1.038614524788e+07 1.038469024983e+07 1.046699998257e+07 1.046310395918e+07 1.045680178205e+07 1.045068310539e+07 1.044503887693e+07 1.043988831725e+07 1.043519207434e+07 1.043090224626e+07 1.042697408946e+07 1.042336797079e+07 1.042004941997e+07 1.041698834168e+07 1.041415854752e+07 1.041153706220e+07 1.040910375045e+07 1.040684084695e+07 1.040473264644e+07 1.040276523502e+07 1.040092619893e+07 1.039920447228e+07 1.039759006790e+07 1.039607392173e+07 1.039464760661e+07 1.039330291109e+07 1.039203126476e+07 1.039082235432e+07 1.038966201006e+07 1.038852744170e+07 1.038737897223e+07 1.038614341140e+07 1.038468829461e+07 1.046700513409e+07 1.046310862890e+07 1.045680600515e+07 1.045068692896e+07 1.044504231477e+07 1.043989141487e+07 1.043519483241e+07 1.043090469983e+07 1.042697624745e+07 1.042336985615e+07 1.042005104382e+07 1.041698970458e+07 1.041415968292e+07 1.041153794894e+07 1.040910443908e+07 1.040684129453e+07 1.040473291771e+07 1.040276527458e+07 1.040092606843e+07 1.039920412923e+07 1.039758955598e+07 1.039607322423e+07 1.039464672450e+07 1.039330186748e+07 1.039203002098e+07 1.039082097180e+07 1.038966042037e+07 1.038852572528e+07 1.038737705405e+07 1.038614136547e+07 1.038468605892e+07 1.046701029719e+07 1.046311327051e+07 1.045681018660e+07 1.045069068867e+07 1.044504568274e+07 1.043989443025e+07 1.043519750928e+07 1.043090707774e+07 1.042697831404e+07 1.042337166709e+07 1.042005256328e+07 1.041699100527e+07 1.041416070241e+07 1.041153878314e+07 1.040910500376e+07 1.040684169110e+07 1.040473305380e+07 1.040276525301e+07 1.040092581051e+07 1.039920371020e+07 1.039758892463e+07 1.039607241809e+07 1.039464573410e+07 1.039330068498e+07 1.039202867575e+07 1.039081942212e+07 1.038965871912e+07 1.038852381374e+07 1.038737498922e+07 1.038613910223e+07 1.038468359822e+07 1.046701513856e+07 1.046311760746e+07 1.045681408388e+07 1.045069418363e+07 1.044504881615e+07 1.043989721985e+07 1.043519999474e+07 1.043090926002e+07 1.042698023301e+07 1.042337330367e+07 1.042005397205e+07 1.041699215240e+07 1.041416165029e+07 1.041153948067e+07 1.040910552243e+07 1.040684197384e+07 1.040473316958e+07 1.040276514765e+07 1.040092554138e+07 1.039920323685e+07 1.039758828119e+07 1.039607158852e+07 1.039464472882e+07 1.039329951120e+07 1.039202731647e+07 1.039081789963e+07 1.038965700319e+07 1.038852193583e+07 1.038737291682e+07 1.038613686848e+07 1.038468113137e+07 1.046701928702e+07 1.046312133940e+07 1.045681744765e+07 1.045069721355e+07 1.044505153744e+07 1.043989965539e+07 1.043520215582e+07 1.043091117343e+07 1.042698190653e+07 1.042337476071e+07 1.042005520617e+07 1.041699319177e+07 1.041416248309e+07 1.041154013368e+07 1.040910597806e+07 1.040684226442e+07 1.040473327785e+07 1.040276509678e+07 1.040092531512e+07 1.039920285617e+07 1.039758773961e+07 1.039607089344e+07 1.039464387829e+07 1.039329850277e+07 1.039202615747e+07 1.039081658136e+07 1.038965553793e+07 1.038852031030e+07 1.038737114063e+07 1.038613493201e+07 1.038467900223e+07 1.046702245711e+07 1.046312423156e+07 1.045682008703e+07 1.045069961533e+07 1.044505371542e+07 1.043990162108e+07 1.043520392281e+07 1.043091275155e+07 1.042698330751e+07 1.042337599000e+07 1.042005627326e+07 1.041699409735e+07 1.041416323864e+07 1.041154074037e+07 1.040910644673e+07 1.040684259060e+07 1.040473347163e+07 1.040276515593e+07 1.040092524872e+07 1.039920266006e+07 1.039758742089e+07 1.039607045115e+07 1.039464331659e+07 1.039329782127e+07 1.039202535994e+07 1.039081567112e+07 1.038965451321e+07 1.038851916988e+07 1.038736988174e+07 1.038613356147e+07 1.038467750430e+07 1.046702453345e+07 1.046312618146e+07 1.045682190766e+07 1.045070130458e+07 1.044505527720e+07 1.043990305929e+07 1.043520523977e+07 1.043091394943e+07 1.042698439139e+07 1.042337696570e+07 1.042005714236e+07 1.041699486511e+07 1.041416390569e+07 1.041154131217e+07 1.040910691769e+07 1.040684296897e+07 1.040473375480e+07 1.040276535549e+07 1.040092535657e+07 1.039920268757e+07 1.039758735985e+07 1.039607031423e+07 1.039464309462e+07 1.039329752894e+07 1.039202498965e+07 1.039081523437e+07 1.038965400210e+07 1.038851859667e+07 1.038736924229e+07 1.038613285916e+07 1.038467675497e+07 1.046702558785e+07 1.046312721808e+07 1.045682291748e+07 1.045070227957e+07 1.044505621431e+07 1.043990395100e+07 1.043520608734e+07 1.043091474643e+07 1.042698513868e+07 1.042337765803e+07 1.042005778754e+07 1.041699545541e+07 1.041416444565e+07 1.041154179077e+07 1.040910734902e+07 1.040684334220e+07 1.040473408521e+07 1.040276562764e+07 1.040092559100e+07 1.039920286674e+07 1.039758750575e+07 1.039607040855e+07 1.039464316147e+07 1.039329754795e+07 1.039202498287e+07 1.039081518613e+07 1.038965393520e+07 1.038851849760e+07 1.038736912833e+07 1.038613271816e+07 1.038467663561e+07 1.046702584800e+07 1.046312739043e+07 1.045682314521e+07 1.045070258049e+07 1.044505657812e+07 1.043990434884e+07 1.043520650658e+07 1.043091516482e+07 1.042698555405e+07 1.042337805862e+07 1.042005817576e+07 1.041699582293e+07 1.041416479598e+07 1.041154211907e+07 1.040910765770e+07 1.040684362788e+07 1.040473435057e+07 1.040276587180e+07 1.040092581809e+07 1.039920307789e+07 1.039758770723e+07 1.039607059908e+07 1.039464334683e+07 1.039329772580e+07 1.039202516576e+07 1.039081537118e+07 1.038965413473e+07 1.038851869907e+07 1.038736933965e+07 1.038613290966e+07 1.038467683419e+07 1.046702384088e+07 1.046312657937e+07 1.045682284536e+07 1.045070249659e+07 1.044505660612e+07 1.043990442289e+07 1.043520661563e+07 1.043091528161e+07 1.042698568485e+07 1.042337818457e+07 1.042005830747e+07 1.041699594793e+07 1.041416492078e+07 1.041154223544e+07 1.040910776871e+07 1.040684373570e+07 1.040473445118e+07 1.040276597425e+07 1.040092591018e+07 1.039920317861e+07 1.039758779565e+07 1.039607070294e+07 1.039464344101e+07 1.039329785011e+07 1.039202529131e+07 1.039081554587e+07 1.038965433463e+07 1.038851899137e+07 1.038736972207e+07 1.038613348053e+07 1.038467767618e+07 
        </DataArray>
        <DataArray type="Float64" Name="STRAIN_XX" format="ascii">
          -3.876274144869e-04 -3.602895418486e-04 -3.355004439972e-04 -3.129324264968e-04 -2.923259348178e-04 -2.734596038497e-04 -2.561427711087e-04 -2.402102716968e-04 -2.255183965813e-04 -2.119416157375e-04 -1.993698845844e-04 -1.877064044750e-04 -1.768657555163e-04 -1.667723274483e-04 -1.573589991184e-04 -1.485660194327e-04 -1.403400575157e-04 -1.326333922781e-04 -1.254032191600e-04 -1.186110548332e-04 -1.122222243167e-04 -1.062054183930e-04 -1.005323105931e-04 -9.517722583260e-05 -9.011685454582e-05 -8.533000883754e-05 -8.079742083747e-05 -7.650158782855e-05 -7.242667935688e-05 -6.855853615901e-05 -6.488456625517e-05 -3.793492472299e-04 -3.525369703209e-04 -3.282246857831e-04 -3.060907899710e-04 -2.858806927501e-04 -2.673772805416e-04 -2.503935577762e-04 -2.347675365210e-04 -2.203582728670e-04 -2.070426517381e-04 -1.947127459216e-04 -1.832736189326e-04 -1.726414943507e-04 -1.627422165791e-04 -1.535099557133e-04 -1.448861101921e-04 -1.368183749960e-04 -1.292599473237e-04 -1.221688458198e-04 -1.155073277275e-04 -1.092413847726e-04 -1.033403105110e-04 -9.777632295559e-05 -9.252424148104e-05 -8.756120454132e-05 -8.286643278978e-05 -7.842102911068e-05 -7.420782945694e-05 -7.021131013623e-05 -6.641759032136e-05 -6.281433018805e-05 -3.548328687053e-04 -3.295771817807e-04 -3.066770137204e-04 -2.858288009436e-04 -2.667926536994e-04 -2.493640516754e-04 -2.333668571297e-04 -2.186484930235e-04 -2.050762029274e-04 -1.925340250372e-04 -1.809203018196e-04 -1.701456126067e-04 -1.601310476995e-04 -1.508067597004e-04 -1.421107428763e-04 -1.339878000599e-04 -1.263886646974e-04 -1.192692528709e-04 -1.125900219323e-04 -1.063154216640e-04 -1.004134193065e-04 -9.485509223909e-05 -8.961427235386e-05 -8.466724201922e-05 -7.999246814292e-05 -7.557037951755e-05 -7.138317881384e-05 -6.741470331003e-05 -6.365033949997e-05 -6.007702943536e-05 -5.668318151080e-05 -3.150204243856e-04 -2.922925048394e-04 -2.716854915876e-04 -2.529251156059e-04 -2.357953607982e-04 -2.201121560823e-04 -2.057169970484e-04 -1.924725882687e-04 -1.802594697824e-04 -1.689732956052e-04 -1.585225899241e-04 -1.488268891631e-04 -1.398151868121e-04 -1.314246315723e-04 -1.235994278702e-04 -1.162899069181e-04 -1.094517365491e-04 -1.030452477485e-04 -9.703485848880e-05 -9.138857862981e-05 -8.607758399376e-05 -8.107584816163e-05 -7.635982435724e-05 -7.190817024933e-05 -6.770151050439e-05 -6.372223534902e-05 -5.995433379751e-05 -5.638326891045e-05 -5.299590553687e-05 -4.978052173347e-05 -4.672674070748e-05 -2.614418777413e-04 -2.421157644940e-04 -2.245948215005e-04 -2.086442027550e-04 -1.940800222478e-04 -1.807457277742e-04 -1.685065469103e-04 -1.572457485205e-04 -1.468617679303e-04 -1.372658904537e-04 -1.283803434779e-04 -1.201367169659e-04 -1.124746407029e-04 -1.053406784793e-04 -9.868739211715e-05 -9.247255300935e-05 -8.665846911985e-05 -8.121141353876e-05 -7.610113375206e-05 -7.130043119090e-05 -6.678479914016e-05 -6.253210932639e-05 -5.852234239657e-05 -5.473735278021e-05 -5.116066890934e-05 -4.777732067140e-05 -4.457370123953e-05 -4.153746136412e-05 -3.865745564899e-05 -3.592375993373e-05 -3.332763199042e-05 -1.961562163077e-04 -1.809752202597e-04 -1.672146678582e-04 -1.546877507200e-04 -1.432497334388e-04 -1.327775958051e-04 -1.231654831123e-04 -1.143217216932e-04 -1.061665529844e-04 -9.863030830835e-05 -9.165191336656e-05 -8.517764445072e-05 -7.916009282416e-05 -7.355729352993e-05 -6.833199288838e-05 -6.345102740012e-05 -5.888479671081e-05 -5.460681390744e-05 -5.059332074514e-05 -4.682295723553e-05 -4.327647733131e-05 -3.993650297703e-05 -3.678731251941e-05 -3.381465627032e-05 -3.100560027160e-05 -2.834839151058e-05 -2.583235193354e-05 -2.344779871666e-05 -2.118601029958e-05 -1.903925380503e-05 -1.700077781985e-05 -1.216723264556e-04 -1.112204646234e-04 -1.017501141797e-04 -9.312927308678e-05 -8.525787178077e-05 -7.805114748601e-05 -7.143623652892e-05 -6.535005421077e-05 -5.973771932639e-05 -5.455129377030e-05 -4.974875332171e-05 -4.529313053212e-05 -4.115180376993e-05 -3.729589592777e-05 -3.369977264502e-05 -3.034061263962e-05 -2.719804755109e-05 -2.425385023646e-05 -2.149167203619e-05 -1.889681383727e-05 -1.645603166334e-05 -1.415736692153e-05 -1.199000105337e-05 -9.944129400357e-06 -8.010853687938e-06 -6.182091765719e-06 -4.450506439322e-06 -2.809457477104e-06 -1.252988209909e-06 2.241337694478e-07 1.626388894681e-06 -4.085257811249e-05 -3.553213028020e-05 -3.071692401027e-05 -2.633442568849e-05 -2.233303091323e-05 -1.866948894537e-05 -1.530673316362e-05 -1.221270023571e-05 -9.359501877523e-06 -6.722779876276e-06 -4.281179614390e-06 -2.015916448457e-06 8.958756779139e-08 2.050007047685e-06 3.878369974323e-06 5.586274325410e-06 7.184072333034e-06 8.681027818130e-06 1.008545029598e-05 1.140481086310e-05 1.264584113282e-05 1.381461916303e-05 1.491664326898e-05 1.595689507705e-05 1.693989379287e-05 1.786973851511e-05 1.875014139262e-05 1.958444107990e-05 2.037559442707e-05 2.112612041244e-05 2.183803532771e-05 4.319717432644e-05 4.318112454326e-05 4.315513790603e-05 4.312990330339e-05 4.310662237092e-05 4.308537536085e-05 4.306600036396e-05 4.304830029537e-05 4.303209084483e-05 4.301720876594e-05 4.300351211628e-05 4.299087679175e-05 4.297919515075e-05 4.296837218942e-05 4.295832535307e-05 4.294898090930e-05 4.294027468049e-05 4.293214871507e-05 4.292455240087e-05 4.291743962988e-05 4.291076960912e-05 4.290450475217e-05 4.289861034713e-05 4.289305269201e-05 4.288779608055e-05 4.288279848716e-05 4.287800080577e-05 4.287330967884e-05 4.286856067533e-05 4.286345235281e-05 4.285743700969e-05 1.272469471046e-04 1.218943934087e-04 1.170272089357e-04 1.125942374049e-04 1.085462775887e-04 1.048402389812e-04 1.014387311009e-04 9.830929636138e-05 9.542367764336e-05 9.275719047803e-05 9.028819586473e-05 8.799766155318e-05 8.586879340757e-05 8.388672785223e-05 8.203827050636e-05 8.031167733493e-05 7.869646627549e-05 7.718325905167e-05 7.576364353020e-05 7.443005755698e-05 7.317568709528e-05 7.199437934779e-05 7.088056651899e-05 6.982919919379e-05 6.883568758821e-05 6.789584738102e-05 6.700584955733e-05 6.616216730880e-05 6.536151633281e-05 6.460077353468e-05 6.387682813753e-05 2.080667522541e-04 1.975827673057e-04 1.880604247673e-04 1.793890994317e-04 1.714711239962e-04 1.642218958848e-04 1.575682267874e-04 1.514466379900e-04 1.458018787142e-04 1.405856849886e-04 1.357557475219e-04 1.312748516813e-04 1.271101590366e-04 1.232326038757e-04 1.196163850663e-04 1.162385354621e-04 1.130785566910e-04 1.101181071718e-04 1.073407356288e-04 1.047316518206e-04 1.022775293367e-04 9.996633489746e-05 9.778718026788e-05 9.573019330479e-05 9.378640463485e-05 9.194764756120e-05 9.020646723159e-05 8.855603610998e-05 8.699006919130e-05 8.550273082339e-05 8.408844545858e-05 2.825507240777e-04 2.673375803769e-04 2.535250160419e-04 2.409475986926e-04 2.294629942085e-04 2.189483422153e-04 2.092974627120e-04 2.004182877960e-04 1.922306889858e-04 1.846646715212e-04 1.776588759181e-04 1.711593308767e-04 1.651184110688e-04 1.594939624323e-04 1.542485648903e-04 1.493489084899e-04 1.447652633356e-04 1.404710276199e-04 1.364423407873e-04 1.326577514250e-04 1.290979311233e-04 1.257454271465e-04 1.225844479756e-04 1.196006766720e-04 1.167811078578e-04 1.141139043440e-04 1.115882700184e-04 1.091943350880e-04 1.069230493337e-04 1.047660769549e-04 1.027155713446e-04 3.478364774996e-04 3.284781894396e-04 3.109052125048e-04 2.949040754091e-04 2.802932931969e-04 2.669164721863e-04 2.546385149030e-04 2.433422947819e-04 2.329258778472e-04 2.233002220700e-04 2.143872703863e-04 2.061183641027e-04 1.984329171214e-04 1.912773032450e-04 1.846039184069e-04 1.783703870325e-04 1.725388877903e-04 1.670755786235e-04 1.619501047573e-04 1.571351761892e-04 1.526062037265e-04 1.483409844393e-04 1.443194290320e-04 1.405233247324e-04 1.369361284933e-04 1.335427859722e-04 1.303295723535e-04 1.272839513658e-04 1.243944489975e-04 1.216505380581e-04 1.190423815231e-04 4.014151105450e-04 3.786549907918e-04 3.579959229947e-04 3.391850115385e-04 3.220086412725e-04 3.062828985151e-04 2.918489538840e-04 2.785691156882e-04 2.663235546419e-04 2.550075970634e-04 2.445294825566e-04 2.348084987806e-04 2.257734230068e-04 2.173612141350e-04 2.095159103062e-04 2.021876959590e-04 1.953321092944e-04 1.889093663737e-04 1.828837827465e-04 1.772232767796e-04 1.718989418834e-04 1.668846767623e-04 1.621568650155e-04 1.576940966064e-04 1.534769252379e-04 1.494876563275e-04 1.457101615287e-04 1.421297162047e-04 1.387328572279e-04 1.355072589850e-04 1.324414509003e-04 4.412276221946e-04 4.159397150526e-04 3.929874759524e-04 3.720887145334e-04 3.530059408986e-04 3.355347921547e-04 3.194988045302e-04 3.047450051311e-04 2.911402673115e-04 2.785683020426e-04 2.669271664511e-04 2.561271915825e-04 2.460892509982e-04 2.367433076940e-04 2.280271894084e-04 2.198855522090e-04 2.122689999692e-04 2.051333335214e-04 1.984389080986e-04 1.921500816064e-04 1.862347393264e-04 1.806638832196e-04 1.754112760071e-04 1.704531318968e-04 1.657678472446e-04 1.613357655755e-04 1.571389725594e-04 1.531611174830e-04 1.493872591696e-04 1.458037356678e-04 1.423978623006e-04 4.657440392570e-04 4.388995282394e-04 4.145351642677e-04 3.923507135656e-04 3.720939838332e-04 3.535480199547e-04 3.365254992939e-04 3.208640390308e-04 3.064223241489e-04 2.930769129907e-04 2.807195923937e-04 2.692551779490e-04 2.585996761379e-04 2.486787419056e-04 2.394263786590e-04 2.307838380999e-04 2.226986855562e-04 2.151240029815e-04 2.080177068658e-04 2.013419625922e-04 1.950626798808e-04 1.891490769034e-04 1.835733024549e-04 1.783101077954e-04 1.733365607987e-04 1.686317969056e-04 1.641768019502e-04 1.599542238772e-04 1.559482111819e-04 1.521442787739e-04 1.485289937040e-04 4.740221905305e-04 4.466521031504e-04 4.218109278162e-04 3.991923538241e-04 3.785392275512e-04 3.596303428031e-04 3.422747104955e-04 3.263067705154e-04 3.115824429566e-04 2.979758710200e-04 2.853767242849e-04 2.736879560107e-04 2.628239292613e-04 2.527088443406e-04 2.432754133220e-04 2.344637383966e-04 2.262203589076e-04 2.184974387444e-04 2.112520709294e-04 2.044456805042e-04 1.980435101536e-04 1.920141757232e-04 1.863292810723e-04 1.809630834541e-04 1.758922022211e-04 1.710953649001e-04 1.665531860737e-04 1.622479757134e-04 1.581635753524e-04 1.542852226810e-04 1.505992338558e-04 
        </DataArray>
        <DataArray type="Float64" Name="STRAIN_XY" format="ascii">
          -3.177730049285e-07 -2.054128510594e-07 -1.733337543996e-07 -1.581813678818e-07 -1.478580530936e-07 -1.393119262723e-07 -1.317033928942e-07 -1.247610414534e-07 -1.183691412862e-07 -1.124594505405e-07 -1.069813263119e-07 -1.018928420761e-07 -9.715768869042e-08 -9.274392330318e-08 -8.862313550210e-08 -8.476999124472e-08 -8.116171623115e-08 -7.777774347878e-08 -7.459915943715e-08 -7.160805460467e-08 -6.878627796369e-08 -6.611321522438e-08 -6.356127238496e-08 -6.108686621229e-08 -5.861219058302e-08 -5.598899138250e-08 -5.292710533390e-08 -4.885531026591e-08 -4.265323145031e-08 -3.214099307409e-08 -1.282971747226e-08 -1.680993712021e-04 -1.574264082533e-04 -1.477440489779e-04 -1.389286047657e-04 -1.308792714022e-04 -1.235097081656e-04 -1.167454590415e-04 -1.105220032662e-04 -1.047831963609e-04 -9.947999545219e-05 -9.456940772646e-05 -9.001361599587e-05 -8.577924890837e-05 -8.183676793408e-05 -7.815995126538e-05 -7.472545662605e-05 -7.151245011337e-05 -6.850228950590e-05 -6.567825334584e-05 -6.302530836228e-05 -6.052990897907e-05 -5.817982436783e-05 -5.596398844689e-05 -5.387237015110e-05 -5.189586064263e-05 -5.002617637751e-05 -4.825577639869e-05 -4.657779495374e-05 -4.498599122137e-05 -4.347472284201e-05 -4.203886282286e-05 -3.297387934098e-04 -3.088030171247e-04 -2.898103815992e-04 -2.725182624531e-04 -2.567289245030e-04 -2.422730043621e-04 -2.290044509198e-04 -2.167967021797e-04 -2.055396264467e-04 -1.951370229100e-04 -1.855045579587e-04 -1.765680505959e-04 -1.682620403196e-04 -1.605285853631e-04 -1.533162497253e-04 -1.465792459334e-04 -1.402767067377e-04 -1.343720641623e-04 -1.288325178715e-04 -1.236285789936e-04 -1.187336769167e-04 -1.141238200548e-04 -1.097773015570e-04 -1.056744447362e-04 -1.017973819107e-04 -9.812986434037e-05 -9.465709994303e-05 -9.136562108389e-05 -8.824318590758e-05 -8.527872646497e-05 -8.246218609715e-05 -4.787065649547e-04 -4.483125157877e-04 -4.207394730076e-04 -3.956351997853e-04 -3.727126283493e-04 -3.517258808602e-04 -3.324629233961e-04 -3.147400164768e-04 -2.983972733073e-04 -2.832950319792e-04 -2.693108587437e-04 -2.563370596528e-04 -2.442786006961e-04 -2.330513634429e-04 -2.225806743078e-04 -2.128000601603e-04 -2.036501910294e-04 -1.950779782525e-04 -1.870358032217e-04 -1.794808546556e-04 -1.723745582001e-04 -1.656820832594e-04 -1.593719164545e-04 -1.534154915931e-04 -1.477868689906e-04 -1.424624589968e-04 -1.374207868715e-04 -1.326423006071e-04 -1.281092279129e-04 -1.238055005715e-04 -1.197165194568e-04 -6.092779418663e-04 -5.705936365871e-04 -5.354997956694e-04 -5.035481052549e-04 -4.743731969906e-04 -4.476621268744e-04 -4.231450268236e-04 -4.005880402960e-04 -3.797876699081e-04 -3.605661595461e-04 -3.427676804592e-04 -3.262551642660e-04 -3.109076553507e-04 -2.966180914606e-04 -2.832914308473e-04 -2.708430694522e-04 -2.591974942454e-04 -2.482871363650e-04 -2.380513887118e-04 -2.284357628869e-04 -2.193911630393e-04 -2.108732581302e-04 -2.028419394380e-04 -1.952608488684e-04 -1.880969717143e-04 -1.813202837676e-04 -1.749034531879e-04 -1.688215946885e-04 -1.630520887040e-04 -1.575744840528e-04 -1.523702006539e-04 -7.164351382312e-04 -6.709471856300e-04 -6.296811766878e-04 -5.921099489866e-04 -5.578038745082e-04 -5.263949691235e-04 -4.975659016444e-04 -4.710416849076e-04 -4.465830316595e-04 -4.239809219839e-04 -4.030521212206e-04 -3.836354532059e-04 -3.655886896291e-04 -3.487859380544e-04 -3.331154415601e-04 -3.184777159481e-04 -3.047839673390e-04 -2.919547431144e-04 -2.799187768118e-04 -2.686119969252e-04 -2.579766726373e-04 -2.479606763672e-04 -2.385168451393e-04 -2.296024264434e-04 -2.211785989447e-04 -2.132100579643e-04 -2.056646647050e-04 -1.985131571567e-04 -1.917289375235e-04 -1.852879577593e-04 -1.791683704663e-04 -7.960601591948e-04 -7.455166302325e-04 -6.996642775858e-04 -6.579173493697e-04 -6.197984677689e-04 -5.848987504434e-04 -5.528655973427e-04 -5.233934588786e-04 -4.962164530060e-04 -4.711023289305e-04 -4.478474871902e-04 -4.262728379366e-04 -4.062203458840e-04 -3.875501262165e-04 -3.701380018196e-04 -3.538734310416e-04 -3.386577520383e-04 -3.244026811372e-04 -3.110290317103e-04 -2.984656109063e-04 -2.866482719395e-04 -2.755190936415e-04 -2.650256712204e-04 -2.551205007735e-04 -2.457604461646e-04 -2.369062791891e-04 -2.285222888307e-04 -2.205759611023e-04 -2.130377419828e-04 -2.058809108452e-04 -1.990811920518e-04 -8.450930543041e-04 -7.914363036660e-04 -7.427596833754e-04 -6.984413623089e-04 -6.579745579206e-04 -6.209252030740e-04 -5.869189783678e-04 -5.556315145337e-04 -5.267805516395e-04 -5.001195341576e-04 -4.754323207813e-04 -4.525287916228e-04 -4.312411762516e-04 -4.114209745017e-04 -3.929363596821e-04 -3.756699820788e-04 -3.595171022639e-04 -3.443839990804e-04 -3.301866081425e-04 -3.168493516286e-04 -3.043041316067e-04 -2.924894592743e-04 -2.813497019042e-04 -2.708344298118e-04 -2.608978495933e-04 -2.514983172661e-04 -2.425979215619e-04 -2.341621465746e-04 -2.261596170795e-04 -2.185619674686e-04 -2.113434260360e-04 -8.616495085908e-04 -8.069415313165e-04 -7.573112562814e-04 -7.121246687327e-04 -6.708650570786e-04 -6.330898493882e-04 -5.984173928471e-04 -5.665169626471e-04 -5.371007688721e-04 -5.099174253483e-04 -4.847465561440e-04 -4.613943166013e-04 -4.396896489190e-04 -4.194811441373e-04 -4.006343921056e-04 -3.830297448854e-04 -3.665604099448e-04 -3.511308311458e-04 -3.366552960306e-04 -3.230567470363e-04 -3.102657512607e-04 -2.982196157999e-04 -2.868616178006e-04 -2.761403393782e-04 -2.660090905261e-04 -2.564254105323e-04 -2.473506465371e-04 -2.387496050851e-04 -2.305902976303e-04 -2.228438015432e-04 -2.154838415151e-04 -8.450932546434e-04 -7.914364472749e-04 -7.427597812361e-04 -6.984414229656e-04 -6.579745884374e-04 -6.209252087255e-04 -5.869189640364e-04 -5.556314836338e-04 -5.267805075323e-04 -5.001194788653e-04 -4.754322568369e-04 -4.525287202359e-04 -4.312410992181e-04 -4.114208924439e-04 -3.929362740187e-04 -3.756698931891e-04 -3.595170111185e-04 -3.443839059045e-04 -3.301865136392e-04 -3.168492559794e-04 -3.043040351961e-04 -2.924893622186e-04 -2.813496044622e-04 -2.708343320499e-04 -2.608977516812e-04 -2.514982191713e-04 -2.425978234614e-04 -2.341620483453e-04 -2.261595188738e-04 -2.185618690904e-04 -2.113433284749e-04 -7.960605256728e-04 -7.455168938048e-04 -6.996644575900e-04 -6.579174614959e-04 -6.197985244599e-04 -5.848987619924e-04 -5.528655717737e-04 -5.233934032161e-04 -4.962163725407e-04 -4.711022285415e-04 -4.478473701432e-04 -4.262727077525e-04 -4.062202046114e-04 -3.875499763948e-04 -3.701378446384e-04 -3.538732684391e-04 -3.386575848178e-04 -3.244025106396e-04 -3.110288584377e-04 -2.984654357242e-04 -2.866480952184e-04 -2.755189158083e-04 -2.650254925856e-04 -2.551203215751e-04 -2.457602666715e-04 -2.369060994800e-04 -2.285221090522e-04 -2.205757812657e-04 -2.130375620776e-04 -2.058807307851e-04 -1.990810133555e-04 -7.164356095827e-04 -6.709475257641e-04 -6.296814098287e-04 -5.921100949945e-04 -5.578039491177e-04 -5.263949854544e-04 -4.975658700654e-04 -4.710416142626e-04 -4.465829289087e-04 -4.239807931539e-04 -4.030519709606e-04 -3.836352855167e-04 -3.655885077338e-04 -3.487857446865e-04 -3.331152389832e-04 -3.184775059740e-04 -3.047837516437e-04 -2.919545229168e-04 -2.799185531720e-04 -2.686117705869e-04 -2.579764443107e-04 -2.479604466255e-04 -2.385166143224e-04 -2.296021949748e-04 -2.211783670012e-04 -2.132098259202e-04 -2.056644325073e-04 -1.985129250062e-04 -1.917287052935e-04 -1.852877254748e-04 -1.791681398525e-04 -6.092784413498e-04 -5.705939980258e-04 -5.355000442380e-04 -5.035482614723e-04 -4.743732775280e-04 -4.476621453191e-04 -4.231449943808e-04 -4.005879659823e-04 -3.797875613243e-04 -3.605660227446e-04 -3.427675206950e-04 -3.262549855896e-04 -3.109074614179e-04 -2.966178850814e-04 -2.832912145979e-04 -2.708428452687e-04 -2.591972638479e-04 -2.482869011076e-04 -2.380511496685e-04 -2.284355209728e-04 -2.193909188749e-04 -2.108730124227e-04 -2.028416925613e-04 -1.952606013439e-04 -1.880967237118e-04 -1.813200356355e-04 -1.749032049431e-04 -1.688213465077e-04 -1.630518405127e-04 -1.575742358550e-04 -1.523699541626e-04 -4.787070131694e-04 -4.483128406441e-04 -4.207396968972e-04 -3.956353407919e-04 -3.727127013409e-04 -3.517258977291e-04 -3.324628942422e-04 -3.147399493003e-04 -2.983971748824e-04 -2.832949077001e-04 -2.693107133484e-04 -2.563368969261e-04 -2.442784238588e-04 -2.330511751689e-04 -2.225804769220e-04 -2.127998555632e-04 -2.036499806888e-04 -1.950777634273e-04 -1.870355849314e-04 -1.794806337207e-04 -1.723743352010e-04 -1.656818587317e-04 -1.593716909132e-04 -1.534152654054e-04 -1.477866424163e-04 -1.424622321782e-04 -1.374205599910e-04 -1.326420736854e-04 -1.281090009704e-04 -1.238052735408e-04 -1.197162938290e-04 -3.297391203013e-04 -3.088032545660e-04 -2.898105455438e-04 -2.725183659209e-04 -2.567289779926e-04 -2.422730163468e-04 -2.290044284520e-04 -2.167966511338e-04 -2.055395517638e-04 -1.951369286553e-04 -1.855044475231e-04 -1.765679269086e-04 -1.682619058822e-04 -1.605284422592e-04 -1.533160996808e-04 -1.465790904278e-04 -1.402765469898e-04 -1.343719010658e-04 -1.288323521521e-04 -1.236284112615e-04 -1.187335077458e-04 -1.141236497962e-04 -1.097771305263e-04 -1.056742731430e-04 -1.017972099889e-04 -9.812969212196e-05 -9.465692746024e-05 -9.136544830191e-05 -8.824301285985e-05 -8.527855309511e-05 -8.246201328739e-05 -1.680995253007e-04 -1.574265236530e-04 -1.477441312159e-04 -1.389286570797e-04 -1.308792977230e-04 -1.235097124866e-04 -1.167454448906e-04 -1.105219737910e-04 -1.047831541137e-04 -9.947994271536e-05 -9.456934633841e-05 -9.001354761401e-05 -8.577917482837e-05 -8.183668933592e-05 -7.815986907694e-05 -7.472537167427e-05 -7.151236304824e-05 -6.850220085404e-05 -6.567816351534e-05 -6.302521765171e-05 -6.052981769684e-05 -5.817973271656e-05 -5.596389663351e-05 -5.387227822252e-05 -5.189576868429e-05 -5.002608426877e-05 -4.825568399414e-05 -4.657770184328e-05 -4.498589699847e-05 -4.347462691469e-05 -4.203876567534e-05 -3.177553051314e-07 -2.054019239165e-07 -1.733230219601e-07 -1.581709113455e-07 -1.478480397228e-07 -1.393024952067e-07 -1.316945762515e-07 -1.247528526894e-07 -1.183615393418e-07 -1.124524077310e-07 -1.069748223968e-07 -1.018868669216e-07 -9.715221657477e-08 -9.273890695840e-08 -8.861854346793e-08 -8.476580393110e-08 -8.115792918568e-08 -7.777433265412e-08 -7.459610436412e-08 -7.160533129753e-08 -6.878388365645e-08 -6.611114466114e-08 -6.355953263953e-08 -6.108544686400e-08 -5.861109331548e-08 -5.598821438361e-08 -5.292665330057e-08 -4.885513036428e-08 -4.265315564543e-08 -3.214054975181e-08 -1.282723266669e-08 
        </DataArray>
        <DataArray type="Float64" Name="STRAIN_YY" format="ascii">
          4.740215073652e-04 4.466514961486e-04 4.218103969824e-04 3.991918919297e-04 3.785388271587e-04 3.596299972878e-04 3.422744141623e-04 3.263065185788e-04 3.115822313586e-04 2.979756963346e-04 2.853765836340e-04 2.736878469884e-04 2.628238498446e-04 2.527087927986e-04 2.432753882208e-04 2.344637385359e-04 2.262203832990e-04 2.184974865297e-04 2.112521414110e-04 2.044457730843e-04 1.980436243312e-04 1.920143110399e-04 1.863294371650e-04 1.809632600113e-04 1.758923989743e-04 1.710955815546e-04 1.665534223281e-04 1.622482311772e-04 1.581638494478e-04 1.542855143950e-04 1.505995410096e-04 4.657433459616e-04 4.388989297270e-04 4.145346432093e-04 3.923502593785e-04 3.720935885408e-04 3.535476770531e-04 3.365252034233e-04 3.208637856723e-04 3.064221095420e-04 2.930767339642e-04 2.807194462864e-04 2.692550625081e-04 2.585995894748e-04 2.486786824481e-04 2.394263450887e-04 2.307838293170e-04 2.226987006381e-04 2.151240411562e-04 2.080177674744e-04 2.013420450725e-04 1.950627837726e-04 1.891492018260e-04 1.835734480960e-04 1.783102738794e-04 1.733367471134e-04 1.686320032817e-04 1.641770282836e-04 1.599544701197e-04 1.559484774336e-04 1.521445653815e-04 1.485293014635e-04 4.412269841112e-04 4.159391556297e-04 3.929869841399e-04 3.720882815418e-04 3.530055595850e-04 3.355344567863e-04 3.194985104910e-04 3.047447486536e-04 2.911400453014e-04 2.785681119326e-04 2.669270061148e-04 2.561270592403e-04 2.460891451726e-04 2.367432271674e-04 2.280271331727e-04 2.198855194286e-04 2.122689899367e-04 2.051333456618e-04 1.984389419202e-04 1.921501367177e-04 1.862348154004e-04 1.806639800234e-04 1.754113933501e-04 1.704532696627e-04 1.657680053605e-04 1.613359440393e-04 1.571391713774e-04 1.531613366964e-04 1.493874988204e-04 1.458039958332e-04 1.423981430741e-04 4.014145649836e-04 3.786545009529e-04 3.579954819366e-04 3.391846137907e-04 3.220082823950e-04 3.062825749203e-04 2.918486626419e-04 2.785688544217e-04 2.663233213972e-04 2.550073902244e-04 2.445293007996e-04 2.348083410475e-04 2.257732884468e-04 2.173611020506e-04 2.095158201267e-04 2.021876272400e-04 1.953320616653e-04 1.889093395309e-04 1.828837764354e-04 1.772232908336e-04 1.718989761728e-04 1.668847312176e-04 1.621569396022e-04 1.576941913564e-04 1.534770401818e-04 1.494877915126e-04 1.457103170058e-04 1.421298920691e-04 1.387330535792e-04 1.355074759455e-04 1.324416887546e-04 3.478360494200e-04 3.284777886013e-04 3.109048368922e-04 2.949037235826e-04 2.802929639837e-04 2.669161646978e-04 2.546382284280e-04 2.433420287581e-04 2.329256318031e-04 2.232999956702e-04 2.143870633930e-04 2.061181763307e-04 1.984327484415e-04 1.912771535765e-04 1.846037877314e-04 1.783702753303e-04 1.725387950731e-04 1.670755049179e-04 1.619500501121e-04 1.571351406636e-04 1.526061874023e-04 1.483409874453e-04 1.443194514941e-04 1.405233667891e-04 1.369361902716e-04 1.335428676247e-04 1.303296740212e-04 1.272840731943e-04 1.243945911377e-04 1.216507006634e-04 1.190425651997e-04 2.825504230659e-04 2.673372762994e-04 2.535247121562e-04 2.409472978478e-04 2.294626987386e-04 2.189480540776e-04 2.092971835036e-04 2.004180189200e-04 1.922304315891e-04 1.846644266142e-04 1.776586443235e-04 1.711591133545e-04 1.651182082567e-04 1.594937749024e-04 1.542483931498e-04 1.493487529909e-04 1.447651244943e-04 1.404709057676e-04 1.364422362690e-04 1.326576645408e-04 1.290978621973e-04 1.257453764416e-04 1.225844157697e-04 1.196006632232e-04 1.167811134215e-04 1.141139291515e-04 1.115883142874e-04 1.091943990368e-04 1.069231331723e-04 1.047661808693e-04 1.027156963005e-04 2.080665713203e-04 1.975825554780e-04 1.880601902908e-04 1.793888490565e-04 1.714708632388e-04 1.642216292965e-04 1.575679580879e-04 1.514463703082e-04 1.458016146252e-04 1.405854267418e-04 1.357554968962e-04 1.312746103033e-04 1.271099281569e-04 1.232323847216e-04 1.196161785045e-04 1.162383424122e-04 1.130783778141e-04 1.101179432177e-04 1.073405871508e-04 1.047315193961e-04 1.022774134217e-04 9.996623590872e-05 9.778709860840e-05 9.573012930752e-05 9.378635867373e-05 9.194761991121e-05 9.020645822647e-05 8.855604601603e-05 8.699009829767e-05 8.550277938765e-05 8.408851475474e-05 1.272468636829e-04 1.218942581972e-04 1.170270339574e-04 1.125940322726e-04 1.085460502149e-04 1.048399956909e-04 1.014384772693e-04 9.830903623659e-05 9.542341499689e-05 9.275692820663e-05 9.028793673158e-05 8.799740752261e-05 8.586854647526e-05 8.388648933869e-05 8.203804193415e-05 8.031145964940e-05 7.869626062168e-05 7.718306618522e-05 7.576346436188e-05 7.442989271762e-05 7.317553720537e-05 7.199424495282e-05 7.088044808713e-05 6.982909720496e-05 6.883560236072e-05 6.789577933006e-05 6.700579900787e-05 6.616213462937e-05 6.536150185162e-05 6.460077758645e-05 6.387685218332e-05 4.319715376442e-05 4.318104191751e-05 4.315500689842e-05 4.312973484042e-05 4.310642530653e-05 4.308515695237e-05 4.306576650672e-05 4.304805595723e-05 4.303184008652e-05 4.301695512613e-05 4.300325840411e-05 4.299062553180e-05 4.297894826378e-05 4.296813151608e-05 4.295809223932e-05 4.294875675983e-05 4.294006051329e-05 4.293194561483e-05 4.292436117979e-05 4.291726111929e-05 4.291060450373e-05 4.290435360654e-05 4.289847372811e-05 4.289293097609e-05 4.288768980689e-05 4.288270794673e-05 4.287792647345e-05 4.287325186318e-05 4.286851977078e-05 4.286342875903e-05 4.285743204806e-05 -4.085257639761e-05 -3.553218863625e-05 -3.071702961777e-05 -2.633456822859e-05 -2.233320211212e-05 -1.866968177916e-05 -1.530694213540e-05 -1.221292048163e-05 -9.359729654452e-06 -6.723011638562e-06 -4.281412802753e-06 -2.016148493834e-06 8.935842184225e-08 2.049782738793e-06 3.878151746880e-06 5.586063607487e-06 7.183870041585e-06 8.680835100119e-06 1.008526792161e-05 1.140463973360e-05 1.264568180642e-05 1.381447235705e-05 1.491650938148e-05 1.595677471397e-05 1.693978719572e-05 1.786964626186e-05 1.875006367984e-05 1.958437845541e-05 2.037554707029e-05 2.112608889642e-05 2.183802060971e-05 -1.216723415866e-04 -1.112205267363e-04 -1.017502132813e-04 -9.312940140810e-05 -8.525802265657e-05 -7.805131565748e-05 -7.143641730704e-05 -6.535024409775e-05 -5.973791488622e-05 -5.455149264084e-05 -4.974895283198e-05 -4.529332915353e-05 -4.115199938347e-05 -3.729608752731e-05 -3.369995853195e-05 -3.034079218595e-05 -2.719821941833e-05 -2.425401388968e-05 -2.149182639838e-05 -1.889695843706e-05 -1.645616574595e-05 -1.415749003986e-05 -1.199011266490e-05 -9.944229085360e-06 -8.010941070353e-06 -6.182166484894e-06 -4.450568157598e-06 -2.809505845958e-06 -1.253022893764e-06 2.241131704147e-07 1.626382927367e-06 -1.961562791689e-04 -1.809753090040e-04 -1.672147767914e-04 -1.546878756601e-04 -1.432498704075e-04 -1.327777418851e-04 -1.231656353941e-04 -1.143218781105e-04 -1.061667113446e-04 -9.863046714705e-05 -9.165207104175e-05 -8.517779976998e-05 -7.916024454167e-05 -7.355744069397e-05 -6.833213459520e-05 -6.345116281533e-05 -5.888492516928e-05 -5.460693475755e-05 -5.059343342437e-05 -4.682306118359e-05 -4.327657200274e-05 -3.993658802604e-05 -3.678738739289e-05 -3.381472077613e-05 -3.100565385960e-05 -2.834843414866e-05 -2.583238303868e-05 -2.344781824111e-05 -2.118601769679e-05 -1.903924894462e-05 -1.700076053254e-05 -2.614420064250e-04 -2.421158941950e-04 -2.245949514690e-04 -2.086443325524e-04 -1.940801514189e-04 -1.807458556314e-04 -1.685066730005e-04 -1.572458720706e-04 -1.468618886424e-04 -1.372660075494e-04 -1.283804567022e-04 -1.201368255215e-04 -1.124747443580e-04 -1.053407764991e-04 -9.868748424342e-05 -9.247263866565e-05 -8.665854802449e-05 -8.121148527290e-05 -7.610119794249e-05 -7.130048756641e-05 -6.678484723664e-05 -6.253214896951e-05 -5.852237308558e-05 -5.473737446162e-05 -5.116068107797e-05 -4.777732328996e-05 -4.457369383177e-05 -4.153744393190e-05 -3.865742775145e-05 -3.592372136017e-05 -3.332758307484e-05 -3.150206223324e-04 -2.922926794528e-04 -2.716856469315e-04 -2.529252547388e-04 -2.357954866035e-04 -2.201122700892e-04 -2.057171011113e-04 -1.924726830898e-04 -1.802595564908e-04 -1.689733744893e-04 -1.585226616990e-04 -1.488269538622e-04 -1.398152447377e-04 -1.314246826695e-04 -1.235994722554e-04 -1.162899444691e-04 -1.094517671913e-04 -1.030452713760e-04 -9.703487504150e-05 -9.138858792983e-05 -8.607758589734e-05 -8.107584242262e-05 -7.635981090116e-05 -7.190814874850e-05 -6.770148087885e-05 -6.372219725016e-05 -5.995428722568e-05 -5.638321350202e-05 -5.299584125977e-05 -4.978044808403e-05 -4.672665863707e-05 -3.548331252790e-04 -3.295773951574e-04 -3.066771915541e-04 -2.858289496862e-04 -2.667927784948e-04 -2.493641563687e-04 -2.333669447617e-04 -2.186485659542e-04 -2.050762629922e-04 -1.925340737541e-04 -1.809203402682e-04 -1.701456417918e-04 -1.601310682721e-04 -1.508067722781e-04 -1.421107477974e-04 -1.339877976385e-04 -1.263886551389e-04 -1.192692362774e-04 -1.125899984586e-04 -1.063153912777e-04 -1.004133821360e-04 -9.485504810138e-05 -8.961422134104e-05 -8.466718388193e-05 -7.999240294161e-05 -7.557030689631e-05 -7.138309880852e-05 -6.741461559807e-05 -6.365024414208e-05 -6.007692593053e-05 -5.668307102257e-05 -3.793495401942e-04 -3.525372069216e-04 -3.282248779898e-04 -3.060909462345e-04 -2.858808184265e-04 -2.673773808849e-04 -2.503936360650e-04 -2.347675964006e-04 -2.203583164012e-04 -2.070426813958e-04 -1.947127630065e-04 -1.832736251248e-04 -1.726414905203e-04 -1.627422037800e-04 -1.535099345001e-04 -1.448860811713e-04 -1.368183385357e-04 -1.292599037222e-04 -1.221687953513e-04 -1.155072705207e-04 -1.092413210275e-04 -1.033402402126e-04 -9.777624625883e-05 -9.252415831258e-05 -8.756111498615e-05 -8.286633669912e-05 -7.842092655241e-05 -7.420772032927e-05 -7.021119441026e-05 -6.641746745603e-05 -6.281420078694e-05 -3.876277080344e-04 -3.602897885270e-04 -3.355006440132e-04 -3.129325871856e-04 -2.923260619133e-04 -2.734597031221e-04 -2.561428463664e-04 -2.402103269211e-04 -2.255184341293e-04 -2.119416383854e-04 -1.993698938105e-04 -1.877064021548e-04 -1.768657426136e-04 -1.667723052544e-04 -1.573589682469e-04 -1.485659805781e-04 -1.403400110567e-04 -1.326333386395e-04 -1.254031586549e-04 -1.186109876014e-04 -1.122221505705e-04 -1.062053381751e-04 -1.005322240989e-04 -9.517713294519e-05 -9.011675537222e-05 -8.532990325162e-05 -8.079730902594e-05 -7.650146975296e-05 -7.242655542416e-05 -6.855840665121e-05 -6.488443398891e-05 
        </DataArray>
        <DataArray type="Float64" Name="DISPLACEMENT" NumberOfComponents="3" format="ascii">
          4.720997866602e-07 0.000000000000e+00 0.000000000000e+00 4.596735738210e-07 0.000000000000e+00 0.000000000000e+00 4.481142290507e-07 0.000000000000e+00 0.000000000000e+00 4.373421079206e-07 0.000000000000e+00 0.000000000000e+00 4.272875472796e-07 0.000000000000e+00 0.000000000000e+00 4.178889910116e-07 0.000000000000e+00 0.000000000000e+00 4.090917587441e-07 0.000000000000e+00 0.000000000000e+00 4.008470908590e-07 0.000000000000e+00 0.000000000000e+00 3.931113628446e-07 0.000000000000e+00 0.000000000000e+00 3.858454251974e-07 0.000000000000e+00 0.000000000000e+00 3.790140435632e-07 0.000000000000e+00 0.000000000000e+00 3.725854211417e-07 0.000000000000e+00 0.000000000000e+00 3.665307894146e-07 0.000000000000e+00 0.000000000000e+00 3.608240560080e-07 0.000000000000e+00 0.000000000000e+00 3.554415005811e-07 0.000000000000e+00 0.000000000000e+00 3.503615112637e-07 0.000000000000e+00 0.000000000000e+00 3.455643554746e-07 0.000000000000e+00 0.000000000000e+00 3.410319799950e-07 0.000000000000e+00 0.000000000000e+00 3.367478360292e-07 0.000000000000e+00 0.000000000000e+00 3.326967256751e-07 0.000000000000e+00 0.000000000000e+00 3.288646668028e-07 0.000000000000e+00 0.000000000000e+00 3.252387737929e-07 0.000000000000e+00 0.000000000000e+00 3.218071519524e-07 0.000000000000e+00 0.000000000000e+00 3.185588037185e-07 0.000000000000e+00 0.000000000000e+00 3.154835449443e-07 0.000000000000e+00 0.000000000000e+00 3.125719296379e-07 0.000000000000e+00 0.000000000000e+00 3.098151814087e-07 0.000000000000e+00 0.000000000000e+00 3.072051294755e-07 0.000000000000e+00 0.000000000000e+00 3.047341461554e-07 0.000000000000e+00 0.000000000000e+00 3.023950808743e-07 0.000000000000e+00 0.000000000000e+00 3.001811821878e-07 0.000000000000e+00 0.000000000000e+00 4.698264954336e-07 4.627378514161e-08 0.000000000000e+00 4.574601177167e-07 4.505580695377e-08 0.000000000000e+00 4.459564339305e-07 4.392279627910e-08 0.000000000000e+00 4.352361831406e-07 4.286694668017e-08 0.000000000000e+00 4.252300376295e-07 4.188143004297e-08 0.000000000000e+00 4.158767376815e-07 4.096021286460e-08 0.000000000000e+00 4.071218662160e-07 4.009793557815e-08 0.000000000000e+00 3.989168984008e-07 3.928981893974e-08 0.000000000000e+00 3.912184197846e-07 3.853158703125e-08 0.000000000000e+00 3.839874693761e-07 3.781940255468e-08 0.000000000000e+00 3.771889824807e-07 3.714981196257e-08 0.000000000000e+00 3.707913154064e-07 3.651969864297e-08 0.000000000000e+00 3.647658381620e-07 3.592624280495e-08 0.000000000000e+00 3.590865840133e-07 3.536688696502e-08 0.000000000000e+00 3.537299468377e-07 3.483930613657e-08 0.000000000000e+00 3.486744188313e-07 3.434138200032e-08 0.000000000000e+00 3.439003624315e-07 3.387118043535e-08 0.000000000000e+00 3.393898113495e-07 3.342693192879e-08 0.000000000000e+00 3.351262964759e-07 3.300701442309e-08 0.000000000000e+00 3.310946930901e-07 3.260993827337e-08 0.000000000000e+00 3.272810863916e-07 3.223433299857e-08 0.000000000000e+00 3.236726528079e-07 3.187893559634e-08 0.000000000000e+00 3.202575549223e-07 3.154258019050e-08 0.000000000000e+00 3.170248481279e-07 3.122418884023e-08 0.000000000000e+00 3.139643973191e-07 3.092276333199e-08 0.000000000000e+00 3.110668019888e-07 3.063737780457e-08 0.000000000000e+00 3.083233280073e-07 3.036717202790e-08 0.000000000000e+00 3.057258439384e-07 3.011134513318e-08 0.000000000000e+00 3.032667588298e-07 2.986914948414e-08 0.000000000000e+00 3.009389565397e-07 2.963988421179e-08 0.000000000000e+00 2.987357181288e-07 2.942288758411e-08 0.000000000000e+00 4.630285150407e-07 9.210192808651e-08 0.000000000000e+00 4.508410665202e-07 8.967770112479e-08 0.000000000000e+00 4.395038297009e-07 8.742259098311e-08 0.000000000000e+00 4.289386904378e-07 8.532105994683e-08 0.000000000000e+00 4.190773240910e-07 8.335951752799e-08 0.000000000000e+00 4.098593572923e-07 8.152595481993e-08 0.000000000000e+00 4.012311603091e-07 7.980970429158e-08 0.000000000000e+00 3.931449104055e-07 7.820125347929e-08 0.000000000000e+00 3.855578212862e-07 7.669209172112e-08 0.000000000000e+00 3.784314956816e-07 7.527458137471e-08 0.000000000000e+00 3.717313762437e-07 7.394184860036e-08 0.000000000000e+00 3.654262771309e-07 7.268769018462e-08 0.000000000000e+00 3.594879825969e-07 7.150649370236e-08 0.000000000000e+00 3.538909016195e-07 7.039316881238e-08 0.000000000000e+00 3.486117696319e-07 6.934308793370e-08 0.000000000000e+00 3.436293900271e-07 6.835203482274e-08 0.000000000000e+00 3.389244093785e-07 6.741615986686e-08 0.000000000000e+00 3.344791213527e-07 6.653194107651e-08 0.000000000000e+00 3.302772951324e-07 6.569614995934e-08 0.000000000000e+00 3.263040248379e-07 6.490582156823e-08 0.000000000000e+00 3.225455970035e-07 6.415822814104e-08 0.000000000000e+00 3.189893736021e-07 6.345085583385e-08 0.000000000000e+00 3.156236884946e-07 6.278138412105e-08 0.000000000000e+00 3.124377554335e-07 6.214766749973e-08 0.000000000000e+00 3.094215859608e-07 6.154771915536e-08 0.000000000000e+00 3.065659155872e-07 6.097969628099e-08 0.000000000000e+00 3.038621365594e-07 6.044188670013e-08 0.000000000000e+00 3.013022350971e-07 5.993269638588e-08 0.000000000000e+00 2.988787300848e-07 5.945063726431e-08 0.000000000000e+00 2.965846083456e-07 5.899431434527e-08 0.000000000000e+00 2.944132481475e-07 5.856241053172e-08 0.000000000000e+00 4.517713144218e-07 1.370430783801e-07 0.000000000000e+00 4.398801661838e-07 1.334359486093e-07 0.000000000000e+00 4.288185594929e-07 1.300804563998e-07 0.000000000000e+00 4.185102792632e-07 1.269534823665e-07 0.000000000000e+00 4.088886619251e-07 1.240348045065e-07 0.000000000000e+00 3.998948018761e-07 1.213065541457e-07 0.000000000000e+00 3.914763732081e-07 1.187528585110e-07 0.000000000000e+00 3.835867158324e-07 1.163595635215e-07 0.000000000000e+00 3.761840836607e-07 1.141140057225e-07 0.000000000000e+00 3.692310129254e-07 1.120048206778e-07 0.000000000000e+00 3.626937864292e-07 1.100217804486e-07 0.000000000000e+00 3.565419765131e-07 1.081556549607e-07 0.000000000000e+00 3.507480534058e-07 1.063980931970e-07 0.000000000000e+00 3.452870482491e-07 1.047415209803e-07 0.000000000000e+00 3.401362620814e-07 1.031790526955e-07 0.000000000000e+00 3.352750136255e-07 1.017044147802e-07 0.000000000000e+00 3.306844199725e-07 1.003118791981e-07 0.000000000000e+00 3.263472052650e-07 9.899620540120e-08 0.000000000000e+00 3.222475332891e-07 9.775258955276e-08 0.000000000000e+00 3.183708605574e-07 9.657661995601e-08 0.000000000000e+00 3.147038070048e-07 9.546423783432e-08 0.000000000000e+00 3.112340418609e-07 9.441170270799e-08 0.000000000000e+00 3.079501826148e-07 9.341556175050e-08 0.000000000000e+00 3.048417052562e-07 9.247262255636e-08 0.000000000000e+00 3.018988641670e-07 9.157992884246e-08 0.000000000000e+00 2.991126200989e-07 9.073473859801e-08 0.000000000000e+00 2.964745745726e-07 8.993450418823e-08 0.000000000000e+00 2.939769086414e-07 8.917685377646e-08 0.000000000000e+00 2.916123230720e-07 8.845957317925e-08 0.000000000000e+00 2.893739751939e-07 8.778058671298e-08 0.000000000000e+00 2.872554042549e-07 8.713793458126e-08 0.000000000000e+00 4.361633074623e-07 1.806644277486e-07 0.000000000000e+00 4.246829773070e-07 1.759091329887e-07 0.000000000000e+00 4.140035296402e-07 1.714855732484e-07 0.000000000000e+00 4.040513824321e-07 1.673632700950e-07 0.000000000000e+00 3.947621751875e-07 1.635155647434e-07 0.000000000000e+00 3.860790373620e-07 1.599189008178e-07 0.000000000000e+00 3.779514507937e-07 1.565523531568e-07 0.000000000000e+00 3.703343673997e-07 1.533972623596e-07 0.000000000000e+00 3.631874833336e-07 1.504369341300e-07 0.000000000000e+00 3.564746291234e-07 1.476563866758e-07 0.000000000000e+00 3.501632524336e-07 1.450421364553e-07 0.000000000000e+00 3.442239768186e-07 1.425820154179e-07 0.000000000000e+00 3.386302236085e-07 1.402650143757e-07 0.000000000000e+00 3.333578865704e-07 1.380811482562e-07 0.000000000000e+00 3.283850509497e-07 1.360213397169e-07 0.000000000000e+00 3.236917499683e-07 1.340773182919e-07 0.000000000000e+00 3.192597530882e-07 1.322415326811e-07 0.000000000000e+00 3.150723813019e-07 1.305070742482e-07 0.000000000000e+00 3.111143455076e-07 1.288676100701e-07 0.000000000000e+00 3.073716046698e-07 1.273173241868e-07 0.000000000000e+00 3.038312409810e-07 1.258508658917e-07 0.000000000000e+00 3.004813496792e-07 1.244633040937e-07 0.000000000000e+00 2.973109414991e-07 1.231500869129e-07 0.000000000000e+00 2.943098560182e-07 1.219070057841e-07 0.000000000000e+00 2.914686843137e-07 1.207301634222e-07 0.000000000000e+00 2.887786994301e-07 1.196159450199e-07 0.000000000000e+00 2.862317930422e-07 1.185609920151e-07 0.000000000000e+00 2.838204163361e-07 1.175621776014e-07 0.000000000000e+00 2.815375222556e-07 1.166165828064e-07 0.000000000000e+00 2.793765045347e-07 1.157214712418e-07 0.000000000000e+00 2.773311256272e-07 1.148742592733e-07 0.000000000000e+00 4.163548086899e-07 2.225458783302e-07 0.000000000000e+00 4.053958582501e-07 2.166882138249e-07 0.000000000000e+00 3.952014183162e-07 2.112391871055e-07 0.000000000000e+00 3.857012485555e-07 2.061612542020e-07 0.000000000000e+00 3.768339113744e-07 2.014215762738e-07 0.000000000000e+00 3.685451189820e-07 1.969911360922e-07 0.000000000000e+00 3.607866474787e-07 1.928441576169e-07 0.000000000000e+00 3.535154946267e-07 1.889576558180e-07 0.000000000000e+00 3.466931869635e-07 1.853110663291e-07 0.000000000000e+00 3.402851976455e-07 1.818859342762e-07 0.000000000000e+00 3.342604526921e-07 1.786656503650e-07 0.000000000000e+00 3.285909097842e-07 1.756352257446e-07 0.000000000000e+00 3.232511973160e-07 1.727810990815e-07 0.000000000000e+00 3.182183038362e-07 1.700909705626e-07 0.000000000000e+00 3.134713098461e-07 1.675536585373e-07 0.000000000000e+00 3.089911553566e-07 1.651589752790e-07 0.000000000000e+00 3.047604377692e-07 1.628976189477e-07 0.000000000000e+00 3.007632355517e-07 1.607610793485e-07 0.000000000000e+00 2.969849539571e-07 1.587415554596e-07 0.000000000000e+00 2.934121896218e-07 1.568318830671e-07 0.000000000000e+00 2.900326114009e-07 1.550254710639e-07 0.000000000000e+00 2.868348551869e-07 1.533162452352e-07 0.000000000000e+00 2.838084307928e-07 1.516985984813e-07 0.000000000000e+00 2.809436392319e-07 1.501673466066e-07 0.000000000000e+00 2.782314988881e-07 1.487176888567e-07 0.000000000000e+00 2.756636791422e-07 1.473451724392e-07 0.000000000000e+00 2.732324399088e-07 1.460456602089e-07 0.000000000000e+00 2.709305752044e-07 1.448153004997e-07 0.000000000000e+00 2.687513580144e-07 1.436504976624e-07 0.000000000000e+00 2.666884820981e-07 1.425478809536e-07 0.000000000000e+00 2.647359931885e-07 1.415042677848e-07 0.000000000000e+00 3.925365855304e-07 2.622840885531e-07 0.000000000000e+00 3.822045554818e-07 2.553804659889e-07 0.000000000000e+00 3.725933013050e-07 2.489584486452e-07 0.000000000000e+00 3.636366008163e-07 2.429737885798e-07 0.000000000000e+00 3.552765310038e-07 2.373877831436e-07 0.000000000000e+00 3.474619096512e-07 2.321662336998e-07 0.000000000000e+00 3.401472715443e-07 2.272787615596e-07 0.000000000000e+00 3.332920744245e-07 2.226982774169e-07 0.000000000000e+00 3.268600457352e-07 2.184005448717e-07 0.000000000000e+00 3.208186337721e-07 2.143638136933e-07 0.000000000000e+00 3.151385421679e-07 2.105685087865e-07 0.000000000000e+00 3.097933327931e-07 2.069969648489e-07 0.000000000000e+00 3.047590854479e-07 2.036331989998e-07 0.000000000000e+00 3.000141050766e-07 2.004627151350e-07 0.000000000000e+00 2.955386688993e-07 1.974723349809e-07 0.000000000000e+00 2.913148072767e-07 1.946500516596e-07 0.000000000000e+00 2.873261131424e-07 1.919849023729e-07 0.000000000000e+00 2.835575757741e-07 1.894668573191e-07 0.000000000000e+00 2.799954353306e-07 1.870867225099e-07 0.000000000000e+00 2.766270552033e-07 1.848360544683e-07 0.000000000000e+00 2.734408096636e-07 1.827070851649e-07 0.000000000000e+00 2.704259847002e-07 1.806926557540e-07 0.000000000000e+00 2.675726902290e-07 1.787861579184e-07 0.000000000000e+00 2.648717821045e-07 1.769814817585e-07 0.000000000000e+00 2.623147925146e-07 1.752729692837e-07 0.000000000000e+00 2.598938674009e-07 1.736553725989e-07 0.000000000000e+00 2.576017094581e-07 1.721238158176e-07 0.000000000000e+00 2.554315249282e-07 1.706737595115e-07 0.000000000000e+00 2.533769716228e-07 1.693009659805e-07 0.000000000000e+00 2.514321040551e-07 1.680014625921e-07 0.000000000000e+00 2.495913085785e-07 1.667714984602e-07 0.000000000000e+00 3.649380210905e-07 2.994963576499e-07 0.000000000000e+00 3.553324147360e-07 2.916132618963e-07 0.000000000000e+00 3.463969081437e-07 2.842801007451e-07 0.000000000000e+00 3.380699350303e-07 2.774463484095e-07 0.000000000000e+00 3.302976447973e-07 2.710678111499e-07 0.000000000000e+00 3.230324537135e-07 2.651054382663e-07 0.000000000000e+00 3.162320931085e-07 2.595245409762e-07 0.000000000000e+00 3.098588711455e-07 2.542941865784e-07 0.000000000000e+00 3.038790655034e-07 2.493867000397e-07 0.000000000000e+00 2.982624131056e-07 2.447772452368e-07 0.000000000000e+00 2.929816773441e-07 2.404434697849e-07 0.000000000000e+00 2.880122788891e-07 2.363652020577e-07 0.000000000000e+00 2.833319793160e-07 2.325241915431e-07 0.000000000000e+00 2.789206088966e-07 2.289038854531e-07 0.000000000000e+00 2.747598315165e-07 2.254892357982e-07 0.000000000000e+00 2.708329409391e-07 2.222665321876e-07 0.000000000000e+00 2.671246836420e-07 2.192232564357e-07 0.000000000000e+00 2.636211042721e-07 2.163479557298e-07 0.000000000000e+00 2.603094104116e-07 2.136301316528e-07 0.000000000000e+00 2.571778539034e-07 2.110601427825e-07 0.000000000000e+00 2.542156263968e-07 2.086291189746e-07 0.000000000000e+00 2.514127671583e-07 2.063288856981e-07 0.000000000000e+00 2.487600814531e-07 2.041518970608e-07 0.000000000000e+00 2.462490680389e-07 2.020911763011e-07 0.000000000000e+00 2.438718544565e-07 2.001402626828e-07 0.000000000000e+00 2.416211388467e-07 1.982931637481e-07 0.000000000000e+00 2.394901369620e-07 1.965443118284e-07 0.000000000000e+00 2.374725326945e-07 1.948885234514e-07 0.000000000000e+00 2.355624297611e-07 1.933209596791e-07 0.000000000000e+00 2.337543006841e-07 1.918370842522e-07 0.000000000000e+00 2.320429264939e-07 1.904326141163e-07 0.000000000000e+00 3.338249051451e-07 3.338243113628e-07 0.000000000000e+00 3.250382301636e-07 3.250376602127e-07 0.000000000000e+00 3.168645253671e-07 3.168639769569e-07 0.000000000000e+00 3.092474732903e-07 3.092469445364e-07 0.000000000000e+00 3.021378143596e-07 3.021373037211e-07 0.000000000000e+00 2.954920215932e-07 2.954915278174e-07 0.000000000000e+00 2.892714299364e-07 2.892709520139e-07 0.000000000000e+00 2.834415609727e-07 2.834410981018e-07 0.000000000000e+00 2.779715673824e-07 2.779711189389e-07 0.000000000000e+00 2.728337661730e-07 2.728333316890e-07 0.000000000000e+00 2.680032427999e-07 2.680028219407e-07 0.000000000000e+00 2.634575134491e-07 2.634571059993e-07 0.000000000000e+00 2.591762356419e-07 2.591758414847e-07 0.000000000000e+00 2.551409592244e-07 2.551405783353e-07 0.000000000000e+00 2.513349113367e-07 2.513345437654e-07 0.000000000000e+00 2.477428100354e-07 2.477424559066e-07 0.000000000000e+00 2.443507022460e-07 2.443503617428e-07 0.000000000000e+00 2.411458223804e-07 2.411454957492e-07 0.000000000000e+00 2.381164686464e-07 2.381161561815e-07 0.000000000000e+00 2.352518944774e-07 2.352515965269e-07 0.000000000000e+00 2.325422129951e-07 2.325419299477e-07 0.000000000000e+00 2.299783126699e-07 2.299780449578e-07 0.000000000000e+00 2.275517826682e-07 2.275515307567e-07 0.000000000000e+00 2.252548465246e-07 2.252546109132e-07 0.000000000000e+00 2.230803029474e-07 2.230800841666e-07 0.000000000000e+00 2.210214726007e-07 2.210212712091e-07 0.000000000000e+00 2.190721496266e-07 2.190719662124e-07 0.000000000000e+00 2.172265564017e-07 2.172263915770e-07 0.000000000000e+00 2.154792993278e-07 2.154791537350e-07 0.000000000000e+00 2.138253221744e-07 2.138251964828e-07 0.000000000000e+00 2.122598508999e-07 2.122597458555e-07 0.000000000000e+00 2.994968745132e-07 3.649373532911e-07 0.000000000000e+00 2.916137520614e-07 3.553317663949e-07 0.000000000000e+00 2.842805668929e-07 3.463962775533e-07 0.000000000000e+00 2.774467927419e-07 3.380693207777e-07 0.000000000000e+00 2.710682354667e-07 3.302970457235e-07 0.000000000000e+00 2.651058440325e-07 3.230318688779e-07 0.000000000000e+00 2.595249293748e-07 3.162315217557e-07 0.000000000000e+00 2.542945585521e-07 3.098583126790e-07 0.000000000000e+00 2.493870563268e-07 3.038785194647e-07 0.000000000000e+00 2.447775864010e-07 2.982618791591e-07 0.000000000000e+00 2.404437962369e-07 2.929811552618e-07 0.000000000000e+00 2.363655140765e-07 2.880117685363e-07 0.000000000000e+00 2.325244892933e-07 2.833314806416e-07 0.000000000000e+00 2.289041690029e-07 2.789201219223e-07 0.000000000000e+00 2.254895051267e-07 2.747593563317e-07 0.000000000000e+00 2.222667871981e-07 2.708324776899e-07 0.000000000000e+00 2.192234969605e-07 2.671242325296e-07 0.000000000000e+00 2.163481815419e-07 2.636206655452e-07 0.000000000000e+00 2.136303424644e-07 2.603089843685e-07 0.000000000000e+00 2.110603382562e-07 2.571774408825e-07 0.000000000000e+00 2.086292987241e-07 2.542152267778e-07 0.000000000000e+00 2.063290492981e-07 2.514123813547e-07 0.000000000000e+00 2.041520440459e-07 2.487597099123e-07 0.000000000000e+00 2.020913061715e-07 2.462487112383e-07 0.000000000000e+00 2.001403749076e-07 2.438715129004e-07 0.000000000000e+00 1.982932577661e-07 2.416208130670e-07 0.000000000000e+00 1.965443870517e-07 2.394898275145e-07 0.000000000000e+00 1.948885792623e-07 2.374722401624e-07 0.000000000000e+00 1.933209954373e-07 2.355621547496e-07 0.000000000000e+00 1.918370992837e-07 2.337540438290e-07 0.000000000000e+00 1.904326076694e-07 2.320426884871e-07 0.000000000000e+00 2.622845274120e-07 3.925358485982e-07 0.000000000000e+00 2.553808771247e-07 3.822038326297e-07 0.000000000000e+00 2.489588348927e-07 3.725925915272e-07 0.000000000000e+00 2.429741522723e-07 3.636359032696e-07 0.000000000000e+00 2.373881261890e-07 3.552758449936e-07 0.000000000000e+00 2.321665576529e-07 3.474612346129e-07 0.000000000000e+00 2.272790676782e-07 3.401466070297e-07 0.000000000000e+00 2.226985667088e-07 3.332914200850e-07 0.000000000000e+00 2.184008181291e-07 3.268594013133e-07 0.000000000000e+00 2.143640715257e-07 3.208179990900e-07 0.000000000000e+00 2.105687516454e-07 3.151379171235e-07 0.000000000000e+00 2.069971930516e-07 3.097927173484e-07 0.000000000000e+00 2.036334127440e-07 3.047584796258e-07 0.000000000000e+00 2.004629145174e-07 3.000135089530e-07 0.000000000000e+00 1.974725200079e-07 2.955380826017e-07 0.000000000000e+00 1.946502222605e-07 2.913142309756e-07 0.000000000000e+00 1.919850584042e-07 2.873255470497e-07 0.000000000000e+00 1.894669985748e-07 2.835570201400e-07 0.000000000000e+00 1.870868487259e-07 2.799948904430e-07 0.000000000000e+00 1.848361653297e-07 2.766265213845e-07 0.000000000000e+00 1.827071803097e-07 2.734402872677e-07 0.000000000000e+00 1.806927347799e-07 2.704254741109e-07 0.000000000000e+00 1.787862203862e-07 2.675721918575e-07 0.000000000000e+00 1.769815271947e-07 2.648712963881e-07 0.000000000000e+00 1.752729971829e-07 2.623143199140e-07 0.000000000000e+00 1.736553824269e-07 2.598934083991e-07 0.000000000000e+00 1.721238070130e-07 2.576012645603e-07 0.000000000000e+00 1.706737314876e-07 2.554310946609e-07 0.000000000000e+00 1.693009181261e-07 2.533765565348e-07 0.000000000000e+00 1.680013942697e-07 2.514317047178e-07 0.000000000000e+00 1.667714089519e-07 2.495909256025e-07 0.000000000000e+00 2.225462395672e-07 4.163540094754e-07 0.000000000000e+00 2.166885482911e-07 4.053950673226e-07 0.000000000000e+00 2.112394975486e-07 3.952006354056e-07 0.000000000000e+00 2.061615428884e-07 3.857004734203e-07 0.000000000000e+00 2.014218450604e-07 3.768331438120e-07 0.000000000000e+00 1.969913864948e-07 3.685443588297e-07 0.000000000000e+00 1.928443908647e-07 3.607858946145e-07 0.000000000000e+00 1.889578728988e-07 3.535147489683e-07 0.000000000000e+00 1.853112680231e-07 3.466924484689e-07 0.000000000000e+00 1.818861211880e-07 3.402844663093e-07 0.000000000000e+00 1.786658229483e-07 3.342597285450e-07 0.000000000000e+00 1.756353843250e-07 3.285901928925e-07 0.000000000000e+00 1.727812438708e-07 3.232504877809e-07 0.000000000000e+00 1.700911016740e-07 3.182176017913e-07 0.000000000000e+00 1.675537759982e-07 3.134706154554e-07 0.000000000000e+00 1.651590790406e-07 3.089904688146e-07 0.000000000000e+00 1.628977088934e-07 3.047597592975e-07 0.000000000000e+00 1.607611553004e-07 3.007625653984e-07 0.000000000000e+00 1.587416171888e-07 2.969842923946e-07 0.000000000000e+00 1.568319302969e-07 2.934115369484e-07 0.000000000000e+00 1.550255034760e-07 2.900319679391e-07 0.000000000000e+00 1.533162624711e-07 2.868342212810e-07 0.000000000000e+00 1.516986001487e-07 2.838078068087e-07 0.000000000000e+00 1.501673322812e-07 2.809430255559e-07 0.000000000000e+00 1.487176580844e-07 2.782308959264e-07 0.000000000000e+00 1.473451247388e-07 2.756630873175e-07 0.000000000000e+00 1.460455950746e-07 2.732318596621e-07 0.000000000000e+00 1.448152174043e-07 2.709300069940e-07 0.000000000000e+00 1.436503960569e-07 2.687508023170e-07 0.000000000000e+00 1.425477602667e-07 2.666879394072e-07 0.000000000000e+00 1.415041273729e-07 2.647354640177e-07 0.000000000000e+00 1.806647127620e-07 4.361624546347e-07 0.000000000000e+00 1.759093941013e-07 4.246821271478e-07 0.000000000000e+00 1.714858128989e-07 4.140026825728e-07 0.000000000000e+00 1.673634902987e-07 4.040505387876e-07 0.000000000000e+00 1.635157671571e-07 3.947613352317e-07 0.000000000000e+00 1.599190867957e-07 3.860782013169e-07 0.000000000000e+00 1.565525237989e-07 3.779506188517e-07 0.000000000000e+00 1.533974185507e-07 3.703335397372e-07 0.000000000000e+00 1.504370765757e-07 3.631866601157e-07 0.000000000000e+00 1.476565159256e-07 3.564738105127e-07 0.000000000000e+00 1.450422529271e-07 3.501624385925e-07 0.000000000000e+00 1.425821194135e-07 3.442231679170e-07 0.000000000000e+00 1.402651061002e-07 3.386294198240e-07 0.000000000000e+00 1.380812278247e-07 3.333570880928e-07 0.000000000000e+00 1.360214071685e-07 3.283842579808e-07 0.000000000000e+00 1.340773735963e-07 3.236909627240e-07 0.000000000000e+00 1.322415757508e-07 3.192589717980e-07 0.000000000000e+00 1.305071049418e-07 3.150716062091e-07 0.000000000000e+00 1.288676282009e-07 3.111135768704e-07 0.000000000000e+00 1.273173295279e-07 3.073708427606e-07 0.000000000000e+00 1.258508581810e-07 3.038304860881e-07 0.000000000000e+00 1.244632830352e-07 3.004806021055e-07 0.000000000000e+00 1.231500521790e-07 2.973102015632e-07 0.000000000000e+00 1.219069570195e-07 2.943091240524e-07 0.000000000000e+00 1.207301002463e-07 2.914679606648e-07 0.000000000000e+00 1.196158670288e-07 2.887779844586e-07 0.000000000000e+00 1.185608987834e-07 2.862310871226e-07 0.000000000000e+00 1.175620686855e-07 2.838197198550e-07 0.000000000000e+00 1.166164577459e-07 2.815368356125e-07 0.000000000000e+00 1.157213295563e-07 2.793758281431e-07 0.000000000000e+00 1.148741004227e-07 2.773304599053e-07 0.000000000000e+00 1.370432891046e-07 4.517704182472e-07 0.000000000000e+00 1.334361400027e-07 4.398792677638e-07 0.000000000000e+00 1.300806304045e-07 4.288176598412e-07 0.000000000000e+00 1.269536405893e-07 4.185093791989e-07 0.000000000000e+00 1.240349482716e-07 4.088877621158e-07 0.000000000000e+00 1.213066845386e-07 3.998939028763e-07 0.000000000000e+00 1.187529764174e-07 3.914754754829e-07 0.000000000000e+00 1.163596696550e-07 3.835858197804e-07 0.000000000000e+00 1.141141006552e-07 3.761831896302e-07 0.000000000000e+00 1.120049048596e-07 3.692301212275e-07 0.000000000000e+00 1.100218542255e-07 3.626928973456e-07 0.000000000000e+00 1.081557185863e-07 3.565410903050e-07 0.000000000000e+00 1.063981468456e-07 3.507471703218e-07 0.000000000000e+00 1.047415647567e-07 3.452861685304e-07 0.000000000000e+00 1.031790866410e-07 3.401353859645e-07 0.000000000000e+00 1.017044388806e-07 3.352741413456e-07 0.000000000000e+00 1.003118933909e-07 3.306835517675e-07 0.000000000000e+00 9.899620958493e-08 3.263463413760e-07 0.000000000000e+00 9.775258358852e-08 3.222466739606e-07 0.000000000000e+00 9.657660367413e-08 3.183700060390e-07 0.000000000000e+00 9.546421103687e-08 3.147029575537e-07 0.000000000000e+00 9.441166517320e-08 3.112331977430e-07 0.000000000000e+00 9.341551323059e-08 3.079493441036e-07 0.000000000000e+00 9.247256278047e-08 3.048408726344e-07 0.000000000000e+00 9.157985751909e-08 3.018980377269e-07 0.000000000000e+00 9.073465541898e-08 2.991118001432e-07 0.000000000000e+00 8.993440882875e-08 2.964737614126e-07 0.000000000000e+00 8.917674589696e-08 2.939761025974e-07 0.000000000000e+00 8.845945242738e-08 2.916115244732e-07 0.000000000000e+00 8.778045272205e-08 2.893731843795e-07 0.000000000000e+00 8.713778693862e-08 2.872546215577e-07 0.000000000000e+00 9.210206657065e-08 4.630275871152e-07 0.000000000000e+00 8.967782621189e-08 4.508401325740e-07 0.000000000000e+00 8.742270395895e-08 4.395028911907e-07 0.000000000000e+00 8.532116188400e-08 4.289377485446e-07 0.000000000000e+00 8.335960931447e-08 4.190763797811e-07 0.000000000000e+00 8.152603719197e-08 4.098584113649e-07 0.000000000000e+00 7.980977785502e-08 4.012302134345e-07 0.000000000000e+00 7.820131872950e-08 3.931439631522e-07 0.000000000000e+00 7.669214905560e-08 3.855568741441e-07 0.000000000000e+00 7.527463111044e-08 3.784305490772e-07 0.000000000000e+00 7.394189098275e-08 3.717304305550e-07 0.000000000000e+00 7.268772539834e-08 3.654253326963e-07 0.000000000000e+00 7.150652187410e-08 3.594870397242e-07 0.000000000000e+00 7.039319002130e-08 3.538899605924e-07 0.000000000000e+00 6.934310221439e-08 3.486108307173e-07 0.000000000000e+00 6.835204217248e-08 3.436284534795e-07 0.000000000000e+00 6.741616024719e-08 3.389234754435e-07 0.000000000000e+00 6.653193442219e-08 3.344781902702e-07 0.000000000000e+00 6.569613618144e-08 3.302763671389e-07 0.000000000000e+00 6.490580055758e-08 3.263031001678e-07 0.000000000000e+00 6.415819976803e-08 3.225446758907e-07 0.000000000000e+00 6.345081995205e-08 3.189884562824e-07 0.000000000000e+00 6.278134056885e-08 3.156227752065e-07 0.000000000000e+00 6.214761610130e-08 3.124368464192e-07 0.000000000000e+00 6.154765972063e-08 3.094206814668e-07 0.000000000000e+00 6.097962860878e-08 3.065650158665e-07 0.000000000000e+00 6.044181057987e-08 3.038612418720e-07 0.000000000000e+00 5.993261159924e-08 3.013013457087e-07 0.000000000000e+00 5.945054358430e-08 2.988778462661e-07 0.000000000000e+00 5.899421153645e-08 2.965837303733e-07 0.000000000000e+00 5.856229832859e-08 2.944123762864e-07 0.000000000000e+00 4.627385329371e-08 4.698255483703e-07 0.000000000000e+00 4.505586853881e-08 4.574591623375e-07 0.000000000000e+00 4.392285179626e-08 4.459554719359e-07 0.000000000000e+00 4.286699657285e-08 4.352352158894e-07 0.000000000000e+00 4.188147471585e-08 4.252290662472e-07 0.000000000000e+00 4.096025267535e-08 4.158757631117e-07 0.000000000000e+00 4.009797082824e-08 4.071208892580e-07 0.000000000000e+00 3.928984988172e-08 3.989159197348e-07 0.000000000000e+00 3.853161386979e-08 3.912174399948e-07 0.000000000000e+00 3.781942545508e-08 3.839864889684e-07 0.000000000000e+00 3.714983105319e-08 3.771880018984e-07 0.000000000000e+00 3.651971402035e-08 3.707903350412e-07 0.000000000000e+00 3.592625453751e-08 3.647648583633e-07 0.000000000000e+00 3.536689509492e-08 3.590856050973e-07 0.000000000000e+00 3.483931068500e-08 3.537289690943e-07 0.000000000000e+00 3.434138296708e-08 3.486734425308e-07 0.000000000000e+00 3.387117780472e-08 3.438993878280e-07 0.000000000000e+00 3.342692566782e-08 3.393888386861e-07 0.000000000000e+00 3.300700448933e-08 3.351253259861e-07 0.000000000000e+00 3.260992461234e-08 3.310937250012e-07 0.000000000000e+00 3.223431554901e-08 3.272801209257e-07 0.000000000000e+00 3.187891428567e-08 3.236716901844e-07 0.000000000000e+00 3.154255494141e-08 3.202565953585e-07 0.000000000000e+00 3.122415956739e-08 3.170238918402e-07 0.000000000000e+00 3.092272994793e-08 3.139634445237e-07 0.000000000000e+00 3.063734021619e-08 3.110658529039e-07 0.000000000000e+00 3.036713014505e-08 3.083223828523e-07 0.000000000000e+00 3.011129886684e-08 3.057249029339e-07 0.000000000000e+00 2.986909875266e-08 3.032658221986e-07 0.000000000000e+00 2.963982893329e-08 3.009380245119e-07 0.000000000000e+00 2.942282765537e-08 2.987347909288e-07 0.000000000000e+00 0.000000000000e+00 4.720988337226e-07 0.000000000000e+00 0.000000000000e+00 4.596726119235e-07 0.000000000000e+00 0.000000000000e+00 4.481132597603e-07 0.000000000000e+00 0.000000000000e+00 4.373411326557e-07 0.000000000000e+00 0.000000000000e+00 4.272865672455e-07 0.000000000000e+00 0.000000000000e+00 4.178880072223e-07 0.000000000000e+00 0.000000000000e+00 4.090907720556e-07 0.000000000000e+00 0.000000000000e+00 4.008461019979e-07 0.000000000000e+00 0.000000000000e+00 3.931103724340e-07 0.000000000000e+00 0.000000000000e+00 3.858444337746e-07 0.000000000000e+00 0.000000000000e+00 3.790130515967e-07 0.000000000000e+00 0.000000000000e+00 3.725844290439e-07 0.000000000000e+00 0.000000000000e+00 3.665297975521e-07 0.000000000000e+00 0.000000000000e+00 3.608230647094e-07 0.000000000000e+00 0.000000000000e+00 3.554405101447e-07 0.000000000000e+00 0.000000000000e+00 3.503605219659e-07 0.000000000000e+00 0.000000000000e+00 3.455633675748e-07 0.000000000000e+00 0.000000000000e+00 3.410309937389e-07 0.000000000000e+00 0.000000000000e+00 3.367468516505e-07 0.000000000000e+00 0.000000000000e+00 3.326957434000e-07 0.000000000000e+00 0.000000000000e+00 3.288636868527e-07 0.000000000000e+00 0.000000000000e+00 3.252377963844e-07 0.000000000000e+00 0.000000000000e+00 3.218061772986e-07 0.000000000000e+00 0.000000000000e+00 3.185578320309e-07 0.000000000000e+00 0.000000000000e+00 3.154825764353e-07 0.000000000000e+00 0.000000000000e+00 3.125709645201e-07 0.000000000000e+00 0.000000000000e+00 3.098142198939e-07 0.000000000000e+00 0.000000000000e+00 3.072041717728e-07 0.000000000000e+00 0.000000000000e+00 3.047331924679e-07 0.000000000000e+00 0.000000000000e+00 3.023941313904e-07 0.000000000000e+00 0.000000000000e+00 3.001802370376e-07 0.000000000000e+00 
        </DataArray>
        <DataArray type="Float64" Name="NORMSTRESS_1" NumberOfComponents="3" format="ascii">
          -1.843981815922e-04 9.999999829987e-01 0.000000000000e+00 -1.272787207462e-04 9.999999919001e-01 0.000000000000e+00 -1.144402942722e-04 9.999999934517e-01 0.000000000000e+00 -1.110630271022e-04 9.999999938325e-01 0.000000000000e+00 -1.101995951946e-04 9.999999939280e-01 0.000000000000e+00 -1.100254399159e-04 9.999999939472e-01 0.000000000000e+00 -1.100431218752e-04 9.999999939453e-01 0.000000000000e+00 -1.101123932476e-04 9.999999939376e-01 0.000000000000e+00 -1.101927022356e-04 9.999999939288e-01 0.000000000000e+00 -1.102722400542e-04 9.999999939200e-01 0.000000000000e+00 -1.103477089282e-04 9.999999939117e-01 0.000000000000e+00 -1.104184110329e-04 9.999999939039e-01 0.000000000000e+00 -1.104844027774e-04 9.999999938966e-01 0.000000000000e+00 -1.105460021044e-04 9.999999938898e-01 0.000000000000e+00 -1.106035036888e-04 9.999999938834e-01 0.000000000000e+00 -1.106571851457e-04 9.999999938775e-01 0.000000000000e+00 -1.107071381716e-04 9.999999938720e-01 0.000000000000e+00 -1.107532073394e-04 9.999999938669e-01 0.000000000000e+00 -1.107945495610e-04 9.999999938623e-01 0.000000000000e+00 -1.108288807064e-04 9.999999938585e-01 0.000000000000e+00 -1.108505447757e-04 9.999999938561e-01 0.000000000000e+00 -1.108464790904e-04 9.999999938565e-01 0.000000000000e+00 -1.107872898905e-04 9.999999938631e-01 0.000000000000e+00 -1.106083103037e-04 9.999999938829e-01 0.000000000000e+00 -1.101694560251e-04 9.999999939313e-01 0.000000000000e+00 -1.091720024821e-04 9.999999940407e-01 0.000000000000e+00 -1.069879199679e-04 9.999999942768e-01 0.000000000000e+00 -1.023148618546e-04 9.999999947658e-01 0.000000000000e+00 -9.248695322424e-05 9.999999957231e-01 0.000000000000e+00 -7.211543845003e-05 9.999999973997e-01 0.000000000000e+00 -2.976952133051e-05 9.999999995569e-01 0.000000000000e+00 -9.801714193549e-02 9.951847265140e-01 0.000000000000e+00 -9.801715227149e-02 9.951847254960e-01 0.000000000000e+00 -9.801716124426e-02 9.951847246123e-01 0.000000000000e+00 -9.801716922558e-02 9.951847238262e-01 0.000000000000e+00 -9.801717629235e-02 9.951847231302e-01 0.000000000000e+00 -9.801718263910e-02 9.951847225051e-01 0.000000000000e+00 -9.801718827639e-02 9.951847219498e-01 0.000000000000e+00 -9.801719337690e-02 9.951847214475e-01 0.000000000000e+00 -9.801719794354e-02 9.951847209977e-01 0.000000000000e+00 -9.801720203216e-02 9.951847205950e-01 0.000000000000e+00 -9.801720561485e-02 9.951847202422e-01 0.000000000000e+00 -9.801720872596e-02 9.951847199357e-01 0.000000000000e+00 -9.801721138077e-02 9.951847196743e-01 0.000000000000e+00 -9.801721353068e-02 9.951847194625e-01 0.000000000000e+00 -9.801721517665e-02 9.951847193004e-01 0.000000000000e+00 -9.801721627423e-02 9.951847191923e-01 0.000000000000e+00 -9.801721686472e-02 9.951847191341e-01 0.000000000000e+00 -9.801721687010e-02 9.951847191336e-01 0.000000000000e+00 -9.801721631775e-02 9.951847191880e-01 0.000000000000e+00 -9.801721513156e-02 9.951847193048e-01 0.000000000000e+00 -9.801721333035e-02 9.951847194822e-01 0.000000000000e+00 -9.801721075584e-02 9.951847197358e-01 0.000000000000e+00 -9.801720740289e-02 9.951847200660e-01 0.000000000000e+00 -9.801720312746e-02 9.951847204871e-01 0.000000000000e+00 -9.801719800052e-02 9.951847209921e-01 0.000000000000e+00 -9.801719184228e-02 9.951847215986e-01 0.000000000000e+00 -9.801718468469e-02 9.951847223036e-01 0.000000000000e+00 -9.801717629342e-02 9.951847231301e-01 0.000000000000e+00 -9.801716672110e-02 9.951847240729e-01 0.000000000000e+00 -9.801715572875e-02 9.951847251555e-01 0.000000000000e+00 -9.801714196122e-02 9.951847265115e-01 0.000000000000e+00 -1.950903251250e-01 9.807852797848e-01 0.000000000000e+00 -1.950903440245e-01 9.807852760255e-01 0.000000000000e+00 -1.950903606521e-01 9.807852727181e-01 0.000000000000e+00 -1.950903754395e-01 9.807852697767e-01 0.000000000000e+00 -1.950903886225e-01 9.807852671544e-01 0.000000000000e+00 -1.950904004111e-01 9.807852648095e-01 0.000000000000e+00 -1.950904109644e-01 9.807852627103e-01 0.000000000000e+00 -1.950904204017e-01 9.807852608331e-01 0.000000000000e+00 -1.950904287744e-01 9.807852591677e-01 0.000000000000e+00 -1.950904362015e-01 9.807852576903e-01 0.000000000000e+00 -1.950904427156e-01 9.807852563946e-01 0.000000000000e+00 -1.950904483413e-01 9.807852552756e-01 0.000000000000e+00 -1.950904530050e-01 9.807852543479e-01 0.000000000000e+00 -1.950904567047e-01 9.807852536120e-01 0.000000000000e+00 -1.950904594365e-01 9.807852530686e-01 0.000000000000e+00 -1.950904611648e-01 9.807852527248e-01 0.000000000000e+00 -1.950904619135e-01 9.807852525759e-01 0.000000000000e+00 -1.950904616020e-01 9.807852526379e-01 0.000000000000e+00 -1.950904602989e-01 9.807852528971e-01 0.000000000000e+00 -1.950904577860e-01 9.807852533969e-01 0.000000000000e+00 -1.950904541256e-01 9.807852541250e-01 0.000000000000e+00 -1.950904490710e-01 9.807852551304e-01 0.000000000000e+00 -1.950904427525e-01 9.807852563873e-01 0.000000000000e+00 -1.950904348274e-01 9.807852579637e-01 0.000000000000e+00 -1.950904253831e-01 9.807852598422e-01 0.000000000000e+00 -1.950904140884e-01 9.807852620889e-01 0.000000000000e+00 -1.950904011229e-01 9.807852646679e-01 0.000000000000e+00 -1.950903861162e-01 9.807852676529e-01 0.000000000000e+00 -1.950903691253e-01 9.807852710326e-01 0.000000000000e+00 -1.950903495919e-01 9.807852749181e-01 0.000000000000e+00 -1.950903250415e-01 9.807852798015e-01 0.000000000000e+00 -2.902846816870e-01 9.569403343876e-01 0.000000000000e+00 -2.902847065106e-01 9.569403268575e-01 0.000000000000e+00 -2.902847286282e-01 9.569403201482e-01 0.000000000000e+00 -2.902847483706e-01 9.569403141594e-01 0.000000000000e+00 -2.902847660965e-01 9.569403087823e-01 0.000000000000e+00 -2.902847818774e-01 9.569403039952e-01 0.000000000000e+00 -2.902847960086e-01 9.569402997085e-01 0.000000000000e+00 -2.902848085014e-01 9.569402959189e-01 0.000000000000e+00 -2.902848196023e-01 9.569402925515e-01 0.000000000000e+00 -2.902848292495e-01 9.569402896250e-01 0.000000000000e+00 -2.902848376112e-01 9.569402870885e-01 0.000000000000e+00 -2.902848445922e-01 9.569402849708e-01 0.000000000000e+00 -2.902848503062e-01 9.569402832375e-01 0.000000000000e+00 -2.902848546279e-01 9.569402819265e-01 0.000000000000e+00 -2.902848576157e-01 9.569402810202e-01 0.000000000000e+00 -2.902848592035e-01 9.569402805386e-01 0.000000000000e+00 -2.902848594556e-01 9.569402804621e-01 0.000000000000e+00 -2.902848582973e-01 9.569402808134e-01 0.000000000000e+00 -2.902848557063e-01 9.569402815994e-01 0.000000000000e+00 -2.902848516160e-01 9.569402828402e-01 0.000000000000e+00 -2.902848460130e-01 9.569402845398e-01 0.000000000000e+00 -2.902848387680e-01 9.569402867376e-01 0.000000000000e+00 -2.902848297953e-01 9.569402894594e-01 0.000000000000e+00 -2.902848189499e-01 9.569402927494e-01 0.000000000000e+00 -2.902848062559e-01 9.569402966000e-01 0.000000000000e+00 -2.902847915313e-01 9.569403010667e-01 0.000000000000e+00 -2.902847747698e-01 9.569403061513e-01 0.000000000000e+00 -2.902847557294e-01 9.569403119271e-01 0.000000000000e+00 -2.902847344666e-01 9.569403183771e-01 0.000000000000e+00 -2.902847105666e-01 9.569403256271e-01 0.000000000000e+00 -2.902846815021e-01 9.569403344437e-01 0.000000000000e+00 -3.826834379396e-01 9.238795302023e-01 0.000000000000e+00 -3.826834661616e-01 9.238795185123e-01 0.000000000000e+00 -3.826834915748e-01 9.238795079858e-01 0.000000000000e+00 -3.826835144318e-01 9.238794985182e-01 0.000000000000e+00 -3.826835349826e-01 9.238794900057e-01 0.000000000000e+00 -3.826835533043e-01 9.238794824166e-01 0.000000000000e+00 -3.826835696361e-01 9.238794756517e-01 0.000000000000e+00 -3.826835840150e-01 9.238794696958e-01 0.000000000000e+00 -3.826835966732e-01 9.238794644526e-01 0.000000000000e+00 -3.826836075127e-01 9.238794599628e-01 0.000000000000e+00 -3.826836167193e-01 9.238794561492e-01 0.000000000000e+00 -3.826836241960e-01 9.238794530523e-01 0.000000000000e+00 -3.826836301269e-01 9.238794505956e-01 0.000000000000e+00 -3.826836343579e-01 9.238794488431e-01 0.000000000000e+00 -3.826836370066e-01 9.238794477460e-01 0.000000000000e+00 -3.826836379815e-01 9.238794473422e-01 0.000000000000e+00 -3.826836373640e-01 9.238794475979e-01 0.000000000000e+00 -3.826836350751e-01 9.238794485460e-01 0.000000000000e+00 -3.826836311191e-01 9.238794501847e-01 0.000000000000e+00 -3.826836255167e-01 9.238794525052e-01 0.000000000000e+00 -3.826836181770e-01 9.238794555455e-01 0.000000000000e+00 -3.826836091014e-01 9.238794593047e-01 0.000000000000e+00 -3.826835980953e-01 9.238794638636e-01 0.000000000000e+00 -3.826835853102e-01 9.238794691593e-01 0.000000000000e+00 -3.826835705482e-01 9.238794752739e-01 0.000000000000e+00 -3.826835539789e-01 9.238794821372e-01 0.000000000000e+00 -3.826835352724e-01 9.238794898857e-01 0.000000000000e+00 -3.826835146308e-01 9.238794984357e-01 0.000000000000e+00 -3.826834917426e-01 9.238795079163e-01 0.000000000000e+00 -3.826834667461e-01 9.238795182702e-01 0.000000000000e+00 -3.826834376157e-01 9.238795303364e-01 0.000000000000e+00 -4.713967433990e-01 8.819212608350e-01 0.000000000000e+00 -4.713967731983e-01 8.819212449070e-01 0.000000000000e+00 -4.713968002235e-01 8.819212304617e-01 0.000000000000e+00 -4.713968246842e-01 8.819212173872e-01 0.000000000000e+00 -4.713968466327e-01 8.819212056554e-01 0.000000000000e+00 -4.713968663173e-01 8.819211951338e-01 0.000000000000e+00 -4.713968837616e-01 8.819211858096e-01 0.000000000000e+00 -4.713968991493e-01 8.819211775847e-01 0.000000000000e+00 -4.713969124269e-01 8.819211704877e-01 0.000000000000e+00 -4.713969237968e-01 8.819211644103e-01 0.000000000000e+00 -4.713969332371e-01 8.819211593644e-01 0.000000000000e+00 -4.713969408717e-01 8.819211552836e-01 0.000000000000e+00 -4.713969466236e-01 8.819211522092e-01 0.000000000000e+00 -4.713969506018e-01 8.819211500827e-01 0.000000000000e+00 -4.713969527798e-01 8.819211489186e-01 0.000000000000e+00 -4.713969532150e-01 8.819211486860e-01 0.000000000000e+00 -4.713969518268e-01 8.819211494280e-01 0.000000000000e+00 -4.713969487048e-01 8.819211510967e-01 0.000000000000e+00 -4.713969437560e-01 8.819211537419e-01 0.000000000000e+00 -4.713969370926e-01 8.819211573036e-01 0.000000000000e+00 -4.713969285107e-01 8.819211618907e-01 0.000000000000e+00 -4.713969182604e-01 8.819211673696e-01 0.000000000000e+00 -4.713969060715e-01 8.819211738847e-01 0.000000000000e+00 -4.713968922662e-01 8.819211812638e-01 0.000000000000e+00 -4.713968764313e-01 8.819211897278e-01 0.000000000000e+00 -4.713968590183e-01 8.819211990352e-01 0.000000000000e+00 -4.713968395632e-01 8.819212094342e-01 0.000000000000e+00 -4.713968185317e-01 8.819212206758e-01 0.000000000000e+00 -4.713967954222e-01 8.819212330280e-01 0.000000000000e+00 -4.713967706602e-01 8.819212462636e-01 0.000000000000e+00 -4.713967429786e-01 8.819212610597e-01 0.000000000000e+00 -5.555702404315e-01 8.314696073501e-01 0.000000000000e+00 -5.555702706771e-01 8.314695871406e-01 0.000000000000e+00 -5.555702981477e-01 8.314695687854e-01 0.000000000000e+00 -5.555703230307e-01 8.314695521590e-01 0.000000000000e+00 -5.555703453887e-01 8.314695372199e-01 0.000000000000e+00 -5.555703654394e-01 8.314695238225e-01 0.000000000000e+00 -5.555703831925e-01 8.314695119602e-01 0.000000000000e+00 -5.555703988582e-01 8.314695014927e-01 0.000000000000e+00 -5.555704123392e-01 8.314694924850e-01 0.000000000000e+00 -5.555704238873e-01 8.314694847688e-01 0.000000000000e+00 -5.555704333661e-01 8.314694784353e-01 0.000000000000e+00 -5.555704410572e-01 8.314694732963e-01 0.000000000000e+00 -5.555704467327e-01 8.314694695040e-01 0.000000000000e+00 -5.555704506909e-01 8.314694668592e-01 0.000000000000e+00 -5.555704527098e-01 8.314694655102e-01 0.000000000000e+00 -5.555704530755e-01 8.314694652659e-01 0.000000000000e+00 -5.555704515232e-01 8.314694663031e-01 0.000000000000e+00 -5.555704482295e-01 8.314694685039e-01 0.000000000000e+00 -5.555704429893e-01 8.314694720053e-01 0.000000000000e+00 -5.555704359755e-01 8.314694766917e-01 0.000000000000e+00 -5.555704271069e-01 8.314694826175e-01 0.000000000000e+00 -5.555704164850e-01 8.314694897149e-01 0.000000000000e+00 -5.555704040480e-01 8.314694980250e-01 0.000000000000e+00 -5.555703898484e-01 8.314695075129e-01 0.000000000000e+00 -5.555703738492e-01 8.314695182032e-01 0.000000000000e+00 -5.555703561053e-01 8.314695300593e-01 0.000000000000e+00 -5.555703365493e-01 8.314695431262e-01 0.000000000000e+00 -5.555703152733e-01 8.314695573424e-01 0.000000000000e+00 -5.555702921829e-01 8.314695727709e-01 0.000000000000e+00 -5.555702672974e-01 8.314695893988e-01 0.000000000000e+00 -5.555702399733e-01 8.314696076562e-01 0.000000000000e+00 -6.343932922113e-01 7.730104467582e-01 0.000000000000e+00 -6.343933218934e-01 7.730104223987e-01 0.000000000000e+00 -6.343933487591e-01 7.730104003506e-01 0.000000000000e+00 -6.343933730035e-01 7.730103804538e-01 0.000000000000e+00 -6.343933948381e-01 7.730103625345e-01 0.000000000000e+00 -6.343934143810e-01 7.730103464961e-01 0.000000000000e+00 -6.343934317709e-01 7.730103322246e-01 0.000000000000e+00 -6.343934470818e-01 7.730103196592e-01 0.000000000000e+00 -6.343934604281e-01 7.730103087062e-01 0.000000000000e+00 -6.343934718225e-01 7.730102993551e-01 0.000000000000e+00 -6.343934813168e-01 7.730102915633e-01 0.000000000000e+00 -6.343934889689e-01 7.730102852833e-01 0.000000000000e+00 -6.343934948493e-01 7.730102804574e-01 0.000000000000e+00 -6.343934990027e-01 7.730102770488e-01 0.000000000000e+00 -6.343935013857e-01 7.730102750932e-01 0.000000000000e+00 -6.343935020573e-01 7.730102745420e-01 0.000000000000e+00 -6.343935009589e-01 7.730102754434e-01 0.000000000000e+00 -6.343934981150e-01 7.730102777774e-01 0.000000000000e+00 -6.343934934185e-01 7.730102816317e-01 0.000000000000e+00 -6.343934869065e-01 7.730102869760e-01 0.000000000000e+00 -6.343934786095e-01 7.730102937851e-01 0.000000000000e+00 -6.343934684636e-01 7.730103021116e-01 0.000000000000e+00 -6.343934565481e-01 7.730103118904e-01 0.000000000000e+00 -6.343934426833e-01 7.730103232690e-01 0.000000000000e+00 -6.343934271526e-01 7.730103360147e-01 0.000000000000e+00 -6.343934096204e-01 7.730103504030e-01 0.000000000000e+00 -6.343933903452e-01 7.730103662218e-01 0.000000000000e+00 -6.343933689129e-01 7.730103838108e-01 0.000000000000e+00 -6.343933456710e-01 7.730104028849e-01 0.000000000000e+00 -6.343933202172e-01 7.730104237743e-01 0.000000000000e+00 -6.343932918115e-01 7.730104470863e-01 0.000000000000e+00 7.071067886371e-01 -7.071067737360e-01 0.000000000000e+00 7.071068173046e-01 -7.071067450685e-01 0.000000000000e+00 7.071068423993e-01 -7.071067199738e-01 0.000000000000e+00 7.071068648191e-01 -7.071066975540e-01 0.000000000000e+00 7.071068850948e-01 -7.071066772783e-01 0.000000000000e+00 7.071069030440e-01 -7.071066593291e-01 0.000000000000e+00 7.071069194746e-01 -7.071066428985e-01 0.000000000000e+00 7.071069336051e-01 -7.071066287680e-01 0.000000000000e+00 7.071069462804e-01 -7.071066160927e-01 0.000000000000e+00 7.071069571054e-01 -7.071066052676e-01 0.000000000000e+00 7.071069662551e-01 -7.071065961179e-01 0.000000000000e+00 7.071069736078e-01 -7.071065887653e-01 0.000000000000e+00 7.071069797833e-01 -7.071065825898e-01 0.000000000000e+00 7.071069840011e-01 -7.071065783719e-01 0.000000000000e+00 7.071069869224e-01 -7.071065754506e-01 0.000000000000e+00 7.071069880659e-01 -7.071065743071e-01 0.000000000000e+00 7.071069877974e-01 -7.071065745756e-01 0.000000000000e+00 7.071069856367e-01 -7.071065767363e-01 0.000000000000e+00 7.071069819378e-01 -7.071065804352e-01 0.000000000000e+00 7.071069765424e-01 -7.071065858306e-01 0.000000000000e+00 7.071069693782e-01 -7.071065929948e-01 0.000000000000e+00 7.071069603106e-01 -7.071066020624e-01 0.000000000000e+00 7.071069495268e-01 -7.071066128463e-01 0.000000000000e+00 7.071069369375e-01 -7.071066254355e-01 0.000000000000e+00 7.071069223549e-01 -7.071066400182e-01 0.000000000000e+00 7.071069060810e-01 -7.071066562920e-01 0.000000000000e+00 7.071068873410e-01 -7.071066750321e-01 0.000000000000e+00 7.071068667872e-01 -7.071066955859e-01 0.000000000000e+00 7.071068439663e-01 -7.071067184068e-01 0.000000000000e+00 7.071068184394e-01 -7.071067439336e-01 0.000000000000e+00 7.071067886371e-01 -7.071067737360e-01 0.000000000000e+00 7.730104618708e-01 -6.343932737966e-01 0.000000000000e+00 7.730104860123e-01 -6.343932443801e-01 0.000000000000e+00 7.730105076182e-01 -6.343932180532e-01 0.000000000000e+00 7.730105270684e-01 -6.343931943530e-01 0.000000000000e+00 7.730105445506e-01 -6.343931730509e-01 0.000000000000e+00 7.730105602560e-01 -6.343931539138e-01 0.000000000000e+00 7.730105743061e-01 -6.343931367937e-01 0.000000000000e+00 7.730105868292e-01 -6.343931215342e-01 0.000000000000e+00 7.730105978532e-01 -6.343931081015e-01 0.000000000000e+00 7.730106074763e-01 -6.343930963757e-01 0.000000000000e+00 7.730106156896e-01 -6.343930863677e-01 0.000000000000e+00 7.730106226015e-01 -6.343930779456e-01 0.000000000000e+00 7.730106281476e-01 -6.343930711876e-01 0.000000000000e+00 7.730106323992e-01 -6.343930660070e-01 0.000000000000e+00 7.730106352749e-01 -6.343930625029e-01 0.000000000000e+00 7.730106368579e-01 -6.343930605741e-01 0.000000000000e+00 7.730106370557e-01 -6.343930603330e-01 0.000000000000e+00 7.730106358260e-01 -6.343930618314e-01 0.000000000000e+00 7.730106331029e-01 -6.343930651496e-01 0.000000000000e+00 7.730106288338e-01 -6.343930703515e-01 0.000000000000e+00 7.730106230636e-01 -6.343930773825e-01 0.000000000000e+00 7.730106155991e-01 -6.343930864780e-01 0.000000000000e+00 7.730106065514e-01 -6.343930975027e-01 0.000000000000e+00 7.730105956804e-01 -6.343931107490e-01 0.000000000000e+00 7.730105831340e-01 -6.343931260369e-01 0.000000000000e+00 7.730105685609e-01 -6.343931437942e-01 0.000000000000e+00 7.730105520845e-01 -6.343931638708e-01 0.000000000000e+00 7.730105334565e-01 -6.343931865691e-01 0.000000000000e+00 7.730105126687e-01 -6.343932118991e-01 0.000000000000e+00 7.730104894347e-01 -6.343932402098e-01 0.000000000000e+00 7.730104616368e-01 -6.343932740817e-01 0.000000000000e+00 8.314696205342e-01 -5.555702207000e-01 0.000000000000e+00 8.314696395426e-01 -5.555701922519e-01 0.000000000000e+00 8.314696565622e-01 -5.555701667804e-01 0.000000000000e+00 8.314696718982e-01 -5.555701438284e-01 0.000000000000e+00 8.314696857074e-01 -5.555701231614e-01 0.000000000000e+00 8.314696981248e-01 -5.555701045776e-01 0.000000000000e+00 8.314697092673e-01 -5.555700879015e-01 0.000000000000e+00 8.314697192224e-01 -5.555700730027e-01 0.000000000000e+00 8.314697280424e-01 -5.555700598026e-01 0.000000000000e+00 8.314697357630e-01 -5.555700482479e-01 0.000000000000e+00 8.314697424195e-01 -5.555700382858e-01 0.000000000000e+00 8.314697480298e-01 -5.555700298894e-01 0.000000000000e+00 8.314697525969e-01 -5.555700230542e-01 0.000000000000e+00 8.314697561270e-01 -5.555700177710e-01 0.000000000000e+00 8.314697586129e-01 -5.555700140507e-01 0.000000000000e+00 8.314697600428e-01 -5.555700119106e-01 0.000000000000e+00 8.314697603641e-01 -5.555700114297e-01 0.000000000000e+00 8.314697595683e-01 -5.555700126208e-01 0.000000000000e+00 8.314697575806e-01 -5.555700155956e-01 0.000000000000e+00 8.314697544077e-01 -5.555700203441e-01 0.000000000000e+00 8.314697499545e-01 -5.555700270089e-01 0.000000000000e+00 8.314697442450e-01 -5.555700355537e-01 0.000000000000e+00 8.314697371320e-01 -5.555700461991e-01 0.000000000000e+00 8.314697286210e-01 -5.555700589366e-01 0.000000000000e+00 8.314697185802e-01 -5.555700739639e-01 0.000000000000e+00 8.314697070143e-01 -5.555700912734e-01 0.000000000000e+00 8.314696937690e-01 -5.555701110965e-01 0.000000000000e+00 8.314696787599e-01 -5.555701335591e-01 0.000000000000e+00 8.314696619161e-01 -5.555701587676e-01 0.000000000000e+00 8.314696430870e-01 -5.555701869475e-01 0.000000000000e+00 8.314696203875e-01 -5.555702209197e-01 0.000000000000e+00 8.819212719629e-01 -4.713967225803e-01 0.000000000000e+00 8.819212851132e-01 -4.713966979777e-01 0.000000000000e+00 8.819212969780e-01 -4.713966757803e-01 0.000000000000e+00 8.819213077145e-01 -4.713966556937e-01 0.000000000000e+00 8.819213174182e-01 -4.713966375394e-01 0.000000000000e+00 8.819213261701e-01 -4.713966211656e-01 0.000000000000e+00 8.819213340287e-01 -4.713966064632e-01 0.000000000000e+00 8.819213410362e-01 -4.713965933531e-01 0.000000000000e+00 8.819213472391e-01 -4.713965817483e-01 0.000000000000e+00 8.819213526651e-01 -4.713965715970e-01 0.000000000000e+00 8.819213573310e-01 -4.713965628676e-01 0.000000000000e+00 8.819213612384e-01 -4.713965555574e-01 0.000000000000e+00 8.819213643996e-01 -4.713965496432e-01 0.000000000000e+00 8.819213668098e-01 -4.713965451340e-01 0.000000000000e+00 8.819213684579e-01 -4.713965420506e-01 0.000000000000e+00 8.819213693156e-01 -4.713965404461e-01 0.000000000000e+00 8.819213693890e-01 -4.713965403088e-01 0.000000000000e+00 8.819213686740e-01 -4.713965416465e-01 0.000000000000e+00 8.819213671664e-01 -4.713965444669e-01 0.000000000000e+00 8.819213648117e-01 -4.713965488723e-01 0.000000000000e+00 8.819213615900e-01 -4.713965548996e-01 0.000000000000e+00 8.819213574594e-01 -4.713965626275e-01 0.000000000000e+00 8.819213524021e-01 -4.713965720891e-01 0.000000000000e+00 8.819213463515e-01 -4.713965834089e-01 0.000000000000e+00 8.819213392862e-01 -4.713965966270e-01 0.000000000000e+00 8.819213311588e-01 -4.713966118325e-01 0.000000000000e+00 8.819213219295e-01 -4.713966290992e-01 0.000000000000e+00 8.819213115379e-01 -4.713966485406e-01 0.000000000000e+00 8.819212999396e-01 -4.713966702395e-01 0.000000000000e+00 8.819212870981e-01 -4.713966942643e-01 0.000000000000e+00 8.819212718351e-01 -4.713967228193e-01 0.000000000000e+00 9.238795391965e-01 -3.826834162255e-01 0.000000000000e+00 9.238795468652e-01 -3.826833977117e-01 0.000000000000e+00 9.238795539029e-01 -3.826833807211e-01 0.000000000000e+00 9.238795603433e-01 -3.826833651728e-01 0.000000000000e+00 9.238795662093e-01 -3.826833510109e-01 0.000000000000e+00 9.238795715135e-01 -3.826833382055e-01 0.000000000000e+00 9.238795762657e-01 -3.826833267325e-01 0.000000000000e+00 9.238795804843e-01 -3.826833165479e-01 0.000000000000e+00 9.238795841937e-01 -3.826833075928e-01 0.000000000000e+00 9.238795874024e-01 -3.826832998461e-01 0.000000000000e+00 9.238795901184e-01 -3.826832932893e-01 0.000000000000e+00 9.238795923423e-01 -3.826832879203e-01 0.000000000000e+00 9.238795940732e-01 -3.826832837416e-01 0.000000000000e+00 9.238795952976e-01 -3.826832807855e-01 0.000000000000e+00 9.238795960188e-01 -3.826832790443e-01 0.000000000000e+00 9.238795962451e-01 -3.826832784981e-01 0.000000000000e+00 9.238795959850e-01 -3.826832791259e-01 0.000000000000e+00 9.238795952376e-01 -3.826832809303e-01 0.000000000000e+00 9.238795940133e-01 -3.826832838861e-01 0.000000000000e+00 9.238795923100e-01 -3.826832879983e-01 0.000000000000e+00 9.238795901116e-01 -3.826832933056e-01 0.000000000000e+00 9.238795874014e-01 -3.826832998487e-01 0.000000000000e+00 9.238795841838e-01 -3.826833076166e-01 0.000000000000e+00 9.238795804544e-01 -3.826833166202e-01 0.000000000000e+00 9.238795761817e-01 -3.826833269355e-01 0.000000000000e+00 9.238795713593e-01 -3.826833385776e-01 0.000000000000e+00 9.238795660103e-01 -3.826833514912e-01 0.000000000000e+00 9.238795601605e-01 -3.826833656140e-01 0.000000000000e+00 9.238795537730e-01 -3.826833810348e-01 0.000000000000e+00 9.238795468176e-01 -3.826833978265e-01 0.000000000000e+00 9.238795390635e-01 -3.826834165467e-01 0.000000000000e+00 9.569403411919e-01 -2.902846592563e-01 0.000000000000e+00 9.569403446718e-01 -2.902846477845e-01 0.000000000000e+00 9.569403479737e-01 -2.902846368997e-01 0.000000000000e+00 9.569403510566e-01 -2.902846267367e-01 0.000000000000e+00 9.569403539098e-01 -2.902846173308e-01 0.000000000000e+00 9.569403565170e-01 -2.902846087362e-01 0.000000000000e+00 9.569403588553e-01 -2.902846010278e-01 0.000000000000e+00 9.569403609138e-01 -2.902845942420e-01 0.000000000000e+00 9.569403627022e-01 -2.902845883461e-01 0.000000000000e+00 9.569403642213e-01 -2.902845833384e-01 0.000000000000e+00 9.569403654604e-01 -2.902845792536e-01 0.000000000000e+00 9.569403664073e-01 -2.902845761322e-01 0.000000000000e+00 9.569403670748e-01 -2.902845739316e-01 0.000000000000e+00 9.569403674599e-01 -2.902845726624e-01 0.000000000000e+00 9.569403675621e-01 -2.902845723253e-01 0.000000000000e+00 9.569403673734e-01 -2.902845729474e-01 0.000000000000e+00 9.569403669301e-01 -2.902845744087e-01 0.000000000000e+00 9.569403662380e-01 -2.902845766904e-01 0.000000000000e+00 9.569403653268e-01 -2.902845796942e-01 0.000000000000e+00 9.569403641863e-01 -2.902845834539e-01 0.000000000000e+00 9.569403628610e-01 -2.902845878228e-01 0.000000000000e+00 9.569403613217e-01 -2.902845928971e-01 0.000000000000e+00 9.569403595948e-01 -2.902845985899e-01 0.000000000000e+00 9.569403576532e-01 -2.902846049906e-01 0.000000000000e+00 9.569403555668e-01 -2.902846118685e-01 0.000000000000e+00 9.569403533226e-01 -2.902846192667e-01 0.000000000000e+00 9.569403509771e-01 -2.902846269988e-01 0.000000000000e+00 9.569403485183e-01 -2.902846351042e-01 0.000000000000e+00 9.569403460084e-01 -2.902846433783e-01 0.000000000000e+00 9.569403434178e-01 -2.902846519185e-01 0.000000000000e+00 9.569403410864e-01 -2.902846596039e-01 0.000000000000e+00 9.807852843541e-01 -1.950903021536e-01 0.000000000000e+00 9.807852852573e-01 -1.950902976128e-01 0.000000000000e+00 9.807852862165e-01 -1.950902927911e-01 0.000000000000e+00 9.807852871767e-01 -1.950902879637e-01 0.000000000000e+00 9.807852881303e-01 -1.950902831694e-01 0.000000000000e+00 9.807852890509e-01 -1.950902785415e-01 0.000000000000e+00 9.807852899023e-01 -1.950902742609e-01 0.000000000000e+00 9.807852906587e-01 -1.950902704583e-01 0.000000000000e+00 9.807852913031e-01 -1.950902672186e-01 0.000000000000e+00 9.807852918319e-01 -1.950902645603e-01 0.000000000000e+00 9.807852922337e-01 -1.950902625403e-01 0.000000000000e+00 9.807852925026e-01 -1.950902611884e-01 0.000000000000e+00 9.807852926336e-01 -1.950902605300e-01 0.000000000000e+00 9.807852926412e-01 -1.950902604917e-01 0.000000000000e+00 9.807852925184e-01 -1.950902611092e-01 0.000000000000e+00 9.807852922712e-01 -1.950902623519e-01 0.000000000000e+00 9.807852918987e-01 -1.950902642246e-01 0.000000000000e+00 9.807852914429e-01 -1.950902665158e-01 0.000000000000e+00 9.807852909058e-01 -1.950902692159e-01 0.000000000000e+00 9.807852903083e-01 -1.950902722198e-01 0.000000000000e+00 9.807852896377e-01 -1.950902755911e-01 0.000000000000e+00 9.807852889394e-01 -1.950902791017e-01 0.000000000000e+00 9.807852882100e-01 -1.950902827686e-01 0.000000000000e+00 9.807852874817e-01 -1.950902864303e-01 0.000000000000e+00 9.807852867488e-01 -1.950902901146e-01 0.000000000000e+00 9.807852860631e-01 -1.950902935621e-01 0.000000000000e+00 9.807852854319e-01 -1.950902967355e-01 0.000000000000e+00 9.807852848840e-01 -1.950902994897e-01 0.000000000000e+00 9.807852844310e-01 -1.950903017670e-01 0.000000000000e+00 9.807852841114e-01 -1.950903033741e-01 0.000000000000e+00 9.807852842948e-01 -1.950903024520e-01 0.000000000000e+00 9.951847288615e-01 -9.801711810139e-02 0.000000000000e+00 9.951847285169e-01 -9.801712159970e-02 0.000000000000e+00 9.951847283976e-01 -9.801712281110e-02 0.000000000000e+00 9.951847284911e-01 -9.801712186184e-02 0.000000000000e+00 9.951847286691e-01 -9.801712005466e-02 0.000000000000e+00 9.951847288710e-01 -9.801711800471e-02 0.000000000000e+00 9.951847290646e-01 -9.801711603957e-02 0.000000000000e+00 9.951847292349e-01 -9.801711431034e-02 0.000000000000e+00 9.951847293738e-01 -9.801711289967e-02 0.000000000000e+00 9.951847294791e-01 -9.801711183062e-02 0.000000000000e+00 9.951847295481e-01 -9.801711112991e-02 0.000000000000e+00 9.951847295801e-01 -9.801711080525e-02 0.000000000000e+00 9.951847295739e-01 -9.801711086810e-02 0.000000000000e+00 9.951847295323e-01 -9.801711129071e-02 0.000000000000e+00 9.951847294560e-01 -9.801711206494e-02 0.000000000000e+00 9.951847293478e-01 -9.801711316338e-02 0.000000000000e+00 9.951847292066e-01 -9.801711459774e-02 0.000000000000e+00 9.951847290426e-01 -9.801711626252e-02 0.000000000000e+00 9.951847288592e-01 -9.801711812464e-02 0.000000000000e+00 9.951847286673e-01 -9.801712007272e-02 0.000000000000e+00 9.951847284580e-01 -9.801712219830e-02 0.000000000000e+00 9.951847282492e-01 -9.801712431779e-02 0.000000000000e+00 9.951847280399e-01 -9.801712644315e-02 0.000000000000e+00 9.951847278587e-01 -9.801712828246e-02 0.000000000000e+00 9.951847276931e-01 -9.801712996395e-02 0.000000000000e+00 9.951847275866e-01 -9.801713104547e-02 0.000000000000e+00 9.951847275473e-01 -9.801713144451e-02 0.000000000000e+00 9.951847276444e-01 -9.801713045844e-02 0.000000000000e+00 9.951847278756e-01 -9.801712811123e-02 0.000000000000e+00 9.951847282784e-01 -9.801712402153e-02 0.000000000000e+00 9.951847287847e-01 -9.801711888074e-02 0.000000000000e+00 9.999999830006e-01 -1.843877016963e-04 0.000000000000e+00 9.999999919009e-01 -1.272718153837e-04 0.000000000000e+00 9.999999934525e-01 -1.144330979499e-04 0.000000000000e+00 9.999999938333e-01 -1.110555882196e-04 0.000000000000e+00 9.999999939289e-01 -1.101920455208e-04 0.000000000000e+00 9.999999939480e-01 -1.100179141767e-04 0.000000000000e+00 9.999999939461e-01 -1.100356869126e-04 0.000000000000e+00 9.999999939384e-01 -1.101051062583e-04 0.000000000000e+00 9.999999939296e-01 -1.101855742896e-04 0.000000000000e+00 9.999999939208e-01 -1.102652915481e-04 0.000000000000e+00 9.999999939124e-01 -1.103409662387e-04 0.000000000000e+00 9.999999939046e-01 -1.104119103923e-04 0.000000000000e+00 9.999999938973e-01 -1.104781633621e-04 0.000000000000e+00 9.999999938905e-01 -1.105400151451e-04 0.000000000000e+00 9.999999938841e-01 -1.105977743285e-04 0.000000000000e+00 9.999999938781e-01 -1.106517303686e-04 0.000000000000e+00 9.999999938725e-01 -1.107019939195e-04 0.000000000000e+00 9.999999938674e-01 -1.107483824157e-04 0.000000000000e+00 9.999999938628e-01 -1.107900552782e-04 0.000000000000e+00 9.999999938589e-01 -1.108247206260e-04 0.000000000000e+00 9.999999938565e-01 -1.108467534374e-04 0.000000000000e+00 9.999999938569e-01 -1.108430876615e-04 0.000000000000e+00 9.999999938634e-01 -1.107843512002e-04 0.000000000000e+00 9.999999938832e-01 -1.106058482527e-04 0.000000000000e+00 9.999999939316e-01 -1.101675161219e-04 0.000000000000e+00 9.999999940409e-01 -1.091706246156e-04 0.000000000000e+00 9.999999942769e-01 -1.069871567682e-04 0.000000000000e+00 9.999999947659e-01 -1.023146451748e-04 0.000000000000e+00 9.999999957231e-01 -9.248694849714e-05 0.000000000000e+00 9.999999973997e-01 -7.211458006991e-05 0.000000000000e+00 9.999999995571e-01 -2.976381639021e-05 0.000000000000e+00 
        </DataArray>
        <DataArray type="Float64" Name="NORMSTRESS_2" NumberOfComponents="3" format="ascii">
          0.000000000000e+00 0.000000000000e+00 1.000000000000e+00 0.000000000000e+00 0.000000000000e+00 1.000000000000e+00 0.000000000000e+00 0.000000000000e+00 1.000000000000e+00 0.000000000000e+00 0.000000000000e+00 1.000000000000e+00 0.000000000000e+00 0.000000000000e+00 1.000000000000e+00 0.000000000000e+00 0.000000000000e+00 1.000000000000e+00 0.000000000000e+00 0.000000000000e+00 1.000000000000e+00 0.000000000000e+00 0.000000000000e+00 1.000000000000e+00 0.000000000000e+00 0.000000000000e+00 1.000000000000e+00 0.000000000000e+00 0.000000000000e+00 1.000000000000e+00 0.000000000000e+00 0.000000000000e+00 1.000000000000e+00 0.000000000000e+00 0.000000000000e+00 1.000000000000e+00 0.000000000000e+00 0.000000000000e+00 1.000000000000e+00 0.000000000000e+00 0.000000000000e+00 1.000000000000e+00 0.000000000000e+00 0.000000000000e+00 1.000000000000e+00 0.000000000000e+00 0.000000000000e+00 1.000000000000e+00 0.000000000000e+00 0.000000000000e+00 1.000000000000e+00 0.000000000000e+00 0.000000000000e+00 1.000000000000e+00 0.000000000000e+00 0.000000000000e+00 1.000000000000e+00 0.000000000000e+00 0.000000000000e+00 1.000000000000e+00 0.000000000000e+00 0.000000000000e+00 1.000000000000e+00 0.000000000000e+00 0.000000000000e+00 1.000000000000e+00 0.000000000000e+00 0.000000000000e+00 1.000000000000e+00 0.000000000000e+00 0.000000000000e+00 1.000000000000e+00 0.000000000000e+00 0.000000000000e+00 1.000000000000e+00 0.000000000000e+00 0.000000000000e+00 1.000000000000e+00 0.000000000000e+00 0.000000000000e+00 1.000000000000e+00 0.000000000000e+00 0.000000000000e+00 1.000000000000e+00 0.000000000000e+00 0.000000000000e+00 1.000000000000e+00 0.000000000000e+00 0.000000000000e+00 1.000000000000e+00 0.000000000000e+00 0.000000000000e+00 1.000000000000e+00 0.000000000000e+00 0.000000000000e+00 1.000000000000e+00 0.000000000000e+00 0.000000000000e+00 1.000000000000e+00 0.000000000000e+00 0.000000000000e+00 1.000000000000e+00 0.000000000000e+00 0.000000000000e+00 1.000000000000e+00 0.000000000000e+00 0.000000000000e+00 1.000000000000e+00 0.000000000000e+00 0.000000000000e+00 1.000000000000e+00 0.000000000000e+00 0.000000000000e+00 1.000000000000e+00 0.000000000000e+00 0.000000000000e+00 1.000000000000e+00 0.000000000000e+00 0.000000000000e+00 1.000000000000e+00 0.000000000000e+00 0.000000000000e+00 1.000000000000e+00 0.000000000000e+00 0.000000000000e+00 1.000000000000e+00 0.000000000000e+00 0.000000000000e+00 1.000000000000e+00 0.000000000000e+00 0.000000000000e+00 1.000000000000e+00 0.000000000000e+00 0.000000000000e+00 1.000000000000e+00 0.000000000000e+00 0.000000000000e+00 1.000000000000e+00 0.000000000000e+00 0.000000000000e+00 1.000000000000e+00 0.000000000000e+00 0.000000000000e+00 1.000000000000e+00 0.000000000000e+00 0.000000000000e+00 1.000000000000e+00 0.000000000000e+00 0.000000000000e+00 1.000000000000e+00 0.000000000000e+00 0.000000000000e+00 1.000000000000e+00 0.000000000000e+00 0.000000000000e+00 1.000000000000e+00 0.000000000000e+00 0.000000000000e+00 1.000000000000e+00 0.000000000000e+00 0.000000000000e+00 1.000000000000e+00 0.000000000000e+00 0.000000000000e+00 1.000000000000e+00 0.000000000000e+00 0.000000000000e+00 1.000000000000e+00 0.000000000000e+00 0.000000000000e+00 1.000000000000e+00 0.000000000000e+00 0.000000000000e+00 1.000000000000e+00 0.000000000000e+00 0.000000000000e+00 1.000000000000e+00 0.000000000000e+00 0.000000000000e+00 1.000000000000e+00 0.000000000000e+00 0.000000000000e+00 1.000000000000e+00 0.000000000000e+00 0.000000000000e+00 1.000000000000e+00 0.000000000000e+00 0.000000000000e+00 1.000000000000e+00 0.000000000000e+00 0.000000000000e+00 1.000000000000e+00 0.000000000000e+00 0.000000000000e+00 1.000000000000e+00 0.000000000000e+00 0.000000000000e+00 1.000000000000e+00 0.000000000000e+00 0.000000000000e+00 1.000000000000e+00 0.000000000000e+00 0.000000000000e+00 1.000000000000e+00 0.000000000000e+00 0.000000000000e+00 1.000000000000e+00 0.000000000000e+00 0.000000000000e+00 1.000000000000e+00 0.000000000000e+00 0.000000000000e+00 1.000000000000e+00 0.000000000000e+00 0.000000000000e+00 1.000000000000e+00 0.000000000000e+00 0.000000000000e+00 1.000000000000e+00 0.000000000000e+00 0.000000000000e+00 1.000000000000e+00 0.000000000000e+00 0.000000000000e+00 1.000000000000e+00 0.000000000000e+00 0.000000000000e+00 1.000000000000e+00 0.000000000000e+00 0.000000000000e+00 1.000000000000e+00 0.000000000000e+00 0.000000000000e+00 1.000000000000e+00 0.000000000000e+00 0.000000000000e+00 1.000000000000e+00 0.000000000000e+00 0.000000000000e+00 1.000000000000e+00 0.000000000000e+00 0.000000000000e+00 1.000000000000e+00 0.000000000000e+00 0.000000000000e+00 1.000000000000e+00 0.000000000000e+00 0.000000000000e+00 1.000000000000e+00 0.000000000000e+00 0.000000000000e+00 1.000000000000e+00 0.000000000000e+00 0.000000000000e+00 1.000000000000e+00 0.000000000000e+00 0.000000000000e+00 1.000000000000e+00 0.000000000000e+00 0.000000000000e+00 1.000000000000e+00 0.000000000000e+00 0.000000000000e+00 1.000000000000e+00 0.000000000000e+00 0.000000000000e+00 1.000000000000e+00 0.000000000000e+00 0.000000000000e+00 1.000000000000e+00 0.000000000000e+00 0.000000000000e+00 1.000000000000e+00 0.000000000000e+00 0.000000000000e+00 1.000000000000e+00 0.000000000000e+00 0.000000000000e+00 1.000000000000e+00 0.000000000000e+00 0.000000000000e+00 1.000000000000e+00 0.000000000000e+00 0.000000000000e+00 1.000000000000e+00 0.000000000000e+00 0.000000000000e+00 1.000000000000e+00 0.000000000000e+00 0.000000000000e+00 1.000000000000e+00 0.000000000000e+00 0.000000000000e+00 1.000000000000e+00 0.000000000000e+00 0.000000000000e+00 1.000000000000e+00 0.000000000000e+00 0.000000000000e+00 1.000000000000e+00 0.000000000000e+00 0.000000000000e+00 1.000000000000e+00 0.000000000000e+00 0.000000000000e+00 1.000000000000e+00 0.000000000000e+00 0.000000000000e+00 1.000000000000e+00 0.000000000000e+00 0.000000000000e+00 1.000000000000e+00 0.000000000000e+00 0.000000000000e+00 1.000000000000e+00 0.000000000000e+00 0.000000000000e+00 1.000000000000e+00 0.000000000000e+00 0.000000000000e+00 1.000000000000e+00 0.000000000000e+00 0.000000000000e+00 1.000000000000e+00 0.000000000000e+00 0.000000000000e+00 1.000000000000e+00 0.000000000000e+00 0.000000000000e+00 1.000000000000e+00 0.000000000000e+00 0.000000000000e+00 1.000000000000e+00 0.000000000000e+00 0.000000000000e+00 1.000000000000e+00 0.000000000000e+00 0.000000000000e+00 1.000000000000e+00 0.000000000000e+00 0.000000000000e+00 1.000000000000e+00 0.000000000000e+00 0.000000000000e+00 1.000000000000e+00 0.000000000000e+00 0.000000000000e+00 1.000000000000e+00 0.000000000000e+00 0.000000000000e+00 1.000000000000e+00 0.000000000000e+00 0.000000000000e+00 1.000000000000e+00 0.000000000000e+00 0.000000000000e+00 1.000000000000e+00 0.000000000000e+00 0.000000000000e+00 1.000000000000e+00 0.000000000000e+00 0.000000000000e+00 1.000000000000e+00 0.000000000000e+00 0.000000000000e+00 1.000000000000e+00 0.000000000000e+00 0.000000000000e+00 1.000000000000e+00 0.000000000000e+00 0.000000000000e+00 1.000000000000e+00 0.000000000000e+00 0.000000000000e+00 1.000000000000e+00 0.000000000000e+00 0.000000000000e+00 1.000000000000e+00 0.000000000000e+00 0.000000000000e+00 1.000000000000e+00 0.000000000000e+00 0.000000000000e+00 1.000000000000e+00 0.000000000000e+00 0.000000000000e+00 1.000000000000e+00 0.000000000000e+00 0.000000000000e+00 1.000000000000e+00 0.000000000000e+00 0.000000000000e+00 1.000000000000e+00 0.000000000000e+00 0.000000000000e+00 1.000000000000e+00 0.000000000000e+00 0.000000000000e+00 1.000000000000e+00 0.000000000000e+00 0.000000000000e+00 1.000000000000e+00 0.000000000000e+00 0.000000000000e+00 1.000000000000e+00 0.000000000000e+00 0.000000000000e+00 1.000000000000e+00 0.000000000000e+00 0.000000000000e+00 1.000000000000e+00 0.000000000000e+00 0.000000000000e+00 1.000000000000e+00 0.000000000000e+00 0.000000000000e+00 1.000000000000e+00 0.000000000000e+00 0.000000000000e+00 1.000000000000e+00 0.000000000000e+00 0.000000000000e+00 1.000000000000e+00 0.000000000000e+00 0.000000000000e+00 1.000000000000e+00 0.000000000000e+00 0.000000000000e+00 1.000000000000e+00 0.000000000000e+00 0.000000000000e+00 1.000000000000e+00 0.000000000000e+00 0.000000000000e+00 1.000000000000e+00 0.000000000000e+00 0.000000000000e+00 1.000000000000e+00 0.000000000000e+00 0.000000000000e+00 1.000000000000e+00 0.000000000000e+00 0.000000000000e+00 1.000000000000e+00 0.000000000000e+00 0.000000000000e+00 1.000000000000e+00 0.000000000000e+00 0.000000000000e+00 1.000000000000e+00 0.000000000000e+00 0.000000000000e+00 1.000000000000e+00 0.000000000000e+00 0.000000000000e+00 1.000000000000e+00 0.000000000000e+00 0.000000000000e+00 1.000000000000e+00 0.000000000000e+00 0.000000000000e+00 1.000000000000e+00 0.000000000000e+00 0.000000000000e+00 1.000000000000e+00 0.000000000000e+00 0.000000000000e+00 1.000000000000e+00 0.000000000000e+00 0.000000000000e+00 1.000000000000e+00 0.000000000000e+00 0.000000000000e+00 1.000000000000e+00 0.000000000000e+00 0.000000000000e+00 1.000000000000e+00 0.000000000000e+00 0.000000000000e+00 1.000000000000e+00 0.000000000000e+00 0.000000000000e+00 1.000000000000e+00 0.000000000000e+00 0.000000000000e+00 1.000000000000e+00 0.000000000000e+00 0.000000000000e+00 1.000000000000e+00 0.000000000000e+00 0.000000000000e+00 1.000000000000e+00 0.000000000000e+00 0.000000000000e+00 1.000000000000e+00 0.000000000000e+00 0.000000000000e+00 1.000000000000e+00 0.000000000000e+00 0.000000000000e+00 1.000000000000e+00 0.000000000000e+00 0.000000000000e+00 1.000000000000e+00 0.000000000000e+00 0.000000000000e+00 1.000000000000e+00 0.000000000000e+00 0.000000000000e+00 1.000000000000e+00 0.000000000000e+00 0.000000000000e+00 1.000000000000e+00 0.000000000000e+00 0.000000000000e+00 1.000000000000e+00 0.000000000000e+00 0.000000000000e+00 1.000000000000e+00 0.000000000000e+00 0.000000000000e+00 1.000000000000e+00 0.000000000000e+00 0.000000000000e+00 1.000000000000e+00 0.000000000000e+00 0.000000000000e+00 1.000000000000e+00 0.000000000000e+00 0.000000000000e+00 1.000000000000e+00 0.000000000000e+00 0.000000000000e+00 1.000000000000e+00 0.000000000000e+00 0.000000000000e+00 1.000000000000e+00 0.000000000000e+00 0.000000000000e+00 1.000000000000e+00 0.000000000000e+00 0.000000000000e+00 1.000000000000e+00 0.000000000000e+00 0.000000000000e+00 1.000000000000e+00 0.000000000000e+00 0.000000000000e+00 1.000000000000e+00 0.000000000000e+00 0.000000000000e+00 1.000000000000e+00 0.000000000000e+00 0.000000000000e+00 1.000000000000e+00 0.000000000000e+00 0.000000000000e+00 1.000000000000e+00 0.000000000000e+00 0.000000000000e+00 1.000000000000e+00 0.000000000000e+00 0.000000000000e+00 1.000000000000e+00 0.000000000000e+00 0.000000000000e+00 1.000000000000e+00 0.000000000000e+00 0.000000000000e+00 1.000000000000e+00 0.000000000000e+00 0.000000000000e+00 1.000000000000e+00 0.000000000000e+00 0.000000000000e+00 1.000000000000e+00 0.000000000000e+00 0.000000000000e+00 1.000000000000e+00 0.000000000000e+00 0.000000000000e+00 1.000000000000e+00 0.000000000000e+00 0.000000000000e+00 1.000000000000e+00 0.000000000000e+00 0.000000000000e+00 1.000000000000e+00 0.000000000000e+00 0.000000000000e+00 1.000000000000e+00 0.000000000000e+00 0.000000000000e+00 1.000000000000e+00 0.000000000000e+00 0.000000000000e+00 1.000000000000e+00 0.000000000000e+00 0.000000000000e+00 1.000000000000e+00 0.000000000000e+00 0.000000000000e+00 1.000000000000e+00 0.000000000000e+00 0.000000000000e+00 1.000000000000e+00 0.000000000000e+00 0.000000000000e+00 1.000000000000e+00 0.000000000000e+00 0.000000000000e+00 1.000000000000e+00 0.000000000000e+00 0.000000000000e+00 1.000000000000e+00 0.000000000000e+00 0.000000000000e+00 1.000000000000e+00 0.000000000000e+00 0.000000000000e+00 1.000000000000e+00 0.000000000000e+00 0.000000000000e+00 1.000000000000e+00 0.000000000000e+00 0.000000000000e+00 1.000000000000e+00 0.000000000000e+00 0.000000000000e+00 1.000000000000e+00 0.000000000000e+00 0.000000000000e+00 1.000000000000e+00 0.000000000000e+00 0.000000000000e+00 1.000000000000e+00 0.000000000000e+00 0.000000000000e+00 1.000000000000e+00 0.000000000000e+00 0.000000000000e+00 1.000000000000e+00 0.000000000000e+00 0.000000000000e+00 1.000000000000e+00 0.000000000000e+00 0.000000000000e+00 1.000000000000e+00 0.000000000000e+00 0.000000000000e+00 1.000000000000e+00 0.000000000000e+00 0.000000000000e+00 1.000000000000e+00 0.000000000000e+00 0.000000000000e+00 1.000000000000e+00 0.000000000000e+00 0.000000000000e+00 1.000000000000e+00 0.000000000000e+00 0.000000000000e+00 1.000000000000e+00 0.000000000000e+00 0.000000000000e+00 1.000000000000e+00 0.000000000000e+00 0.000000000000e+00 1.000000000000e+00 0.000000000000e+00 0.000000000000e+00 1.000000000000e+00 0.000000000000e+00 0.000000000000e+00 1.000000000000e+00 0.000000000000e+00 0.000000000000e+00 1.000000000000e+00 0.000000000000e+00 0.000000000000e+00 1.000000000000e+00 0.000000000000e+00 0.000000000000e+00 1.000000000000e+00 0.000000000000e+00 0.000000000000e+00 1.000000000000e+00 0.000000000000e+00 0.000000000000e+00 1.000000000000e+00 0.000000000000e+00 0.000000000000e+00 1.000000000000e+00 0.000000000000e+00 0.000000000000e+00 1.000000000000e+00 0.000000000000e+00 0.000000000000e+00 1.000000000000e+00 0.000000000000e+00 0.000000000000e+00 1.000000000000e+00 0.000000000000e+00 0.000000000000e+00 1.000000000000e+00 0.000000000000e+00 0.000000000000e+00 1.000000000000e+00 0.000000000000e+00 0.000000000000e+00 1.000000000000e+00 0.000000000000e+00 0.000000000000e+00 1.000000000000e+00 0.000000000000e+00 0.000000000000e+00 1.000000000000e+00 0.000000000000e+00 0.000000000000e+00 1.000000000000e+00 0.000000000000e+00 0.000000000000e+00 1.000000000000e+00 0.000000000000e+00 0.000000000000e+00 1.000000000000e+00 0.000000000000e+00 0.000000000000e+00 1.000000000000e+00 0.000000000000e+00 0.000000000000e+00 1.000000000000e+00 0.000000000000e+00 0.000000000000e+00 1.000000000000e+00 0.000000000000e+00 0.000000000000e+00 1.000000000000e+00 0.000000000000e+00 0.000000000000e+00 1.000000000000e+00 0.000000000000e+00 0.000000000000e+00 1.000000000000e+00 0.000000000000e+00 0.000000000000e+00 1.000000000000e+00 0.000000000000e+00 0.000000000000e+00 1.000000000000e+00 0.000000000000e+00 0.000000000000e+00 1.000000000000e+00 0.000000000000e+00 0.000000000000e+00 1.000000000000e+00 0.000000000000e+00 0.000000000000e+00 1.000000000000e+00 0.000000000000e+00 0.000000000000e+00 1.000000000000e+00 0.000000000000e+00 0.000000000000e+00 1.000000000000e+00 0.000000000000e+00 0.000000000000e+00 1.000000000000e+00 0.000000000000e+00 0.000000000000e+00 1.000000000000e+00 0.000000000000e+00 0.000000000000e+00 1.000000000000e+00 0.000000000000e+00 0.000000000000e+00 1.000000000000e+00 0.000000000000e+00 0.000000000000e+00 1.000000000000e+00 0.000000000000e+00 0.000000000000e+00 1.000000000000e+00 0.000000000000e+00 0.000000000000e+00 1.000000000000e+00 0.000000000000e+00 0.000000000000e+00 1.000000000000e+00 0.000000000000e+00 0.000000000000e+00 1.000000000000e+00 0.000000000000e+00 0.000000000000e+00 1.000000000000e+00 0.000000000000e+00 0.000000000000e+00 1.000000000000e+00 0.000000000000e+00 0.000000000000e+00 1.000000000000e+00 0.000000000000e+00 0.000000000000e+00 1.000000000000e+00 0.000000000000e+00 0.000000000000e+00 1.000000000000e+00 0.000000000000e+00 0.000000000000e+00 1.000000000000e+00 0.000000000000e+00 0.000000000000e+00 1.000000000000e+00 0.000000000000e+00 0.000000000000e+00 1.000000000000e+00 0.000000000000e+00 0.000000000000e+00 1.000000000000e+00 0.000000000000e+00 0.000000000000e+00 1.000000000000e+00 0.000000000000e+00 0.000000000000e+00 1.000000000000e+00 0.000000000000e+00 0.000000000000e+00 1.000000000000e+00 0.000000000000e+00 0.000000000000e+00 1.000000000000e+00 0.000000000000e+00 0.000000000000e+00 1.000000000000e+00 0.000000000000e+00 0.000000000000e+00 1.000000000000e+00 0.000000000000e+00 0.000000000000e+00 1.000000000000e+00 0.000000000000e+00 0.000000000000e+00 1.000000000000e+00 0.000000000000e+00 0.000000000000e+00 1.000000000000e+00 0.000000000000e+00 0.000000000000e+00 1.000000000000e+00 0.000000000000e+00 0.000000000000e+00 1.000000000000e+00 0.000000000000e+00 0.000000000000e+00 1.000000000000e+00 0.000000000000e+00 0.000000000000e+00 1.000000000000e+00 0.000000000000e+00 0.000000000000e+00 1.000000000000e+00 0.000000000000e+00 0.000000000000e+00 1.000000000000e+00 0.000000000000e+00 0.000000000000e+00 1.000000000000e+00 0.000000000000e+00 0.000000000000e+00 1.000000000000e+00 0.000000000000e+00 0.000000000000e+00 1.000000000000e+00 0.000000000000e+00 0.000000000000e+00 1.000000000000e+00 0.000000000000e+00 0.000000000000e+00 1.000000000000e+00 0.000000000000e+00 0.000000000000e+00 1.000000000000e+00 0.000000000000e+00 0.000000000000e+00 1.000000000000e+00 0.000000000000e+00 0.000000000000e+00 1.000000000000e+00 0.000000000000e+00 0.000000000000e+00 1.000000000000e+00 0.000000000000e+00 0.000000000000e+00 1.000000000000e+00 0.000000000000e+00 0.000000000000e+00 1.000000000000e+00 0.000000000000e+00 0.000000000000e+00 1.000000000000e+00 0.000000000000e+00 0.000000000000e+00 1.000000000000e+00 0.000000000000e+00 0.000000000000e+00 1.000000000000e+00 0.000000000000e+00 0.000000000000e+00 1.000000000000e+00 0.000000000000e+00 0.000000000000e+00 1.000000000000e+00 0.000000000000e+00 0.000000000000e+00 1.000000000000e+00 0.000000000000e+00 0.000000000000e+00 1.000000000000e+00 0.000000000000e+00 0.000000000000e+00 1.000000000000e+00 0.000000000000e+00 0.000000000000e+00 1.000000000000e+00 0.000000000000e+00 0.000000000000e+00 1.000000000000e+00 0.000000000000e+00 0.000000000000e+00 1.000000000000e+00 0.000000000000e+00 0.000000000000e+00 1.000000000000e+00 0.000000000000e+00 0.000000000000e+00 1.000000000000e+00 0.000000000000e+00 0.000000000000e+00 1.000000000000e+00 0.000000000000e+00 0.000000000000e+00 1.000000000000e+00 0.000000000000e+00 0.000000000000e+00 1.000000000000e+00 0.000000000000e+00 0.000000000000e+00 1.000000000000e+00 0.000000000000e+00 0.000000000000e+00 1.000000000000e+00 0.000000000000e+00 0.000000000000e+00 1.000000000000e+00 0.000000000000e+00 0.000000000000e+00 1.000000000000e+00 0.000000000000e+00 0.000000000000e+00 1.000000000000e+00 0.000000000000e+00 0.000000000000e+00 1.000000000000e+00 0.000000000000e+00 0.000000000000e+00 1.000000000000e+00 0.000000000000e+00 0.000000000000e+00 1.000000000000e+00 0.000000000000e+00 0.000000000000e+00 1.000000000000e+00 0.000000000000e+00 0.000000000000e+00 1.000000000000e+00 0.000000000000e+00 0.000000000000e+00 1.000000000000e+00 0.000000000000e+00 0.000000000000e+00 1.000000000000e+00 0.000000000000e+00 0.000000000000e+00 1.000000000000e+00 0.000000000000e+00 0.000000000000e+00 1.000000000000e+00 0.000000000000e+00 0.000000000000e+00 1.000000000000e+00 0.000000000000e+00 0.000000000000e+00 1.000000000000e+00 0.000000000000e+00 0.000000000000e+00 1.000000000000e+00 0.000000000000e+00 0.000000000000e+00 1.000000000000e+00 0.000000000000e+00 0.000000000000e+00 1.000000000000e+00 0.000000000000e+00 0.000000000000e+00 1.000000000000e+00 0.000000000000e+00 0.000000000000e+00 1.000000000000e+00 0.000000000000e+00 0.000000000000e+00 1.000000000000e+00 0.000000000000e+00 0.000000000000e+00 1.000000000000e+00 0.000000000000e+00 0.000000000000e+00 1.000000000000e+00 0.000000000000e+00 0.000000000000e+00 1.000000000000e+00 0.000000000000e+00 0.000000000000e+00 1.000000000000e+00 0.000000000000e+00 0.000000000000e+00 1.000000000000e+00 0.000000000000e+00 0.000000000000e+00 1.000000000000e+00 0.000000000000e+00 0.000000000000e+00 1.000000000000e+00 0.000000000000e+00 0.000000000000e+00 1.000000000000e+00 0.000000000000e+00 0.000000000000e+00 1.000000000000e+00 0.000000000000e+00 0.000000000000e+00 1.000000000000e+00 0.000000000000e+00 0.000000000000e+00 1.000000000000e+00 0.000000000000e+00 0.000000000000e+00 1.000000000000e+00 0.000000000000e+00 0.000000000000e+00 1.000000000000e+00 0.000000000000e+00 0.000000000000e+00 1.000000000000e+00 0.000000000000e+00 0.000000000000e+00 1.000000000000e+00 0.000000000000e+00 0.000000000000e+00 1.000000000000e+00 0.000000000000e+00 0.000000000000e+00 1.000000000000e+00 0.000000000000e+00 0.000000000000e+00 1.000000000000e+00 0.000000000000e+00 0.000000000000e+00 1.000000000000e+00 0.000000000000e+00 0.000000000000e+00 1.000000000000e+00 0.000000000000e+00 0.000000000000e+00 1.000000000000e+00 0.000000000000e+00 0.000000000000e+00 1.000000000000e+00 0.000000000000e+00 0.000000000000e+00 1.000000000000e+00 0.000000000000e+00 0.000000000000e+00 1.000000000000e+00 0.000000000000e+00 0.000000000000e+00 1.000000000000e+00 0.000000000000e+00 0.000000000000e+00 1.000000000000e+00 0.000000000000e+00 0.000000000000e+00 1.000000000000e+00 0.000000000000e+00 0.000000000000e+00 1.000000000000e+00 0.000000000000e+00 0.000000000000e+00 1.000000000000e+00 0.000000000000e+00 0.000000000000e+00 1.000000000000e+00 0.000000000000e+00 0.000000000000e+00 1.000000000000e+00 0.000000000000e+00 0.000000000000e+00 1.000000000000e+00 0.000000000000e+00 0.000000000000e+00 1.000000000000e+00 0.000000000000e+00 0.000000000000e+00 1.000000000000e+00 0.000000000000e+00 0.000000000000e+00 1.000000000000e+00 0.000000000000e+00 0.000000000000e+00 1.000000000000e+00 0.000000000000e+00 0.000000000000e+00 1.000000000000e+00 0.000000000000e+00 0.000000000000e+00 1.000000000000e+00 0.000000000000e+00 0.000000000000e+00 1.000000000000e+00 0.000000000000e+00 0.000000000000e+00 1.000000000000e+00 0.000000000000e+00 0.000000000000e+00 1.000000000000e+00 0.000000000000e+00 0.000000000000e+00 1.000000000000e+00 0.000000000000e+00 0.000000000000e+00 1.000000000000e+00 0.000000000000e+00 0.000000000000e+00 1.000000000000e+00 0.000000000000e+00 0.000000000000e+00 1.000000000000e+00 0.000000000000e+00 0.000000000000e+00 1.000000000000e+00 0.000000000000e+00 0.000000000000e+00 1.000000000000e+00 0.000000000000e+00 0.000000000000e+00 1.000000000000e+00 0.000000000000e+00 0.000000000000e+00 1.000000000000e+00 0.000000000000e+00 0.000000000000e+00 1.000000000000e+00 0.000000000000e+00 0.000000000000e+00 1.000000000000e+00 0.000000000000e+00 0.000000000000e+00 1.000000000000e+00 0.000000000000e+00 0.000000000000e+00 1.000000000000e+00 0.000000000000e+00 0.000000000000e+00 1.000000000000e+00 0.000000000000e+00 0.000000000000e+00 1.000000000000e+00 0.000000000000e+00 0.000000000000e+00 1.000000000000e+00 0.000000000000e+00 0.000000000000e+00 1.000000000000e+00 0.000000000000e+00 0.000000000000e+00 1.000000000000e+00 0.000000000000e+00 0.000000000000e+00 1.000000000000e+00 0.000000000000e+00 0.000000000000e+00 1.000000000000e+00 0.000000000000e+00 0.000000000000e+00 1.000000000000e+00 0.000000000000e+00 0.000000000000e+00 1.000000000000e+00 0.000000000000e+00 0.000000000000e+00 1.000000000000e+00 0.000000000000e+00 0.000000000000e+00 1.000000000000e+00 0.000000000000e+00 0.000000000000e+00 1.000000000000e+00 0.000000000000e+00 0.000000000000e+00 1.000000000000e+00 0.000000000000e+00 0.000000000000e+00 1.000000000000e+00 0.000000000000e+00 0.000000000000e+00 1.000000000000e+00 0.000000000000e+00 0.000000000000e+00 1.000000000000e+00 0.000000000000e+00 0.000000000000e+00 1.000000000000e+00 0.000000000000e+00 0.000000000000e+00 1.000000000000e+00 0.000000000000e+00 0.000000000000e+00 1.000000000000e+00 0.000000000000e+00 0.000000000000e+00 1.000000000000e+00 0.000000000000e+00 0.000000000000e+00 1.000000000000e+00 0.000000000000e+00 0.000000000000e+00 1.000000000000e+00 0.000000000000e+00 0.000000000000e+00 1.000000000000e+00 0.000000000000e+00 0.000000000000e+00 1.000000000000e+00 0.000000000000e+00 0.000000000000e+00 1.000000000000e+00 0.000000000000e+00 0.000000000000e+00 1.000000000000e+00 0.000000000000e+00 0.000000000000e+00 1.000000000000e+00 0.000000000000e+00 0.000000000000e+00 1.000000000000e+00 0.000000000000e+00 0.000000000000e+00 1.000000000000e+00 0.000000000000e+00 0.000000000000e+00 1.000000000000e+00 0.000000000000e+00 0.000000000000e+00 1.000000000000e+00 0.000000000000e+00 0.000000000000e+00 1.000000000000e+00 0.000000000000e+00 0.000000000000e+00 1.000000000000e+00 0.000000000000e+00 0.000000000000e+00 1.000000000000e+00 0.000000000000e+00 0.000000000000e+00 1.000000000000e+00 0.000000000000e+00 0.000000000000e+00 1.000000000000e+00 0.000000000000e+00 0.000000000000e+00 1.000000000000e+00 0.000000000000e+00 0.000000000000e+00 1.000000000000e+00 0.000000000000e+00 0.000000000000e+00 1.000000000000e+00 0.000000000000e+00 0.000000000000e+00 1.000000000000e+00 0.000000000000e+00 0.000000000000e+00 1.000000000000e+00 0.000000000000e+00 0.000000000000e+00 1.000000000000e+00 0.000000000000e+00 0.000000000000e+00 1.000000000000e+00 0.000000000000e+00 0.000000000000e+00 1.000000000000e+00 0.000000000000e+00 0.000000000000e+00 1.000000000000e+00 0.000000000000e+00 0.000000000000e+00 1.000000000000e+00 0.000000000000e+00 0.000000000000e+00 1.000000000000e+00 0.000000000000e+00 0.000000000000e+00 1.000000000000e+00 0.000000000000e+00 0.000000000000e+00 1.000000000000e+00 0.000000000000e+00 0.000000000000e+00 1.000000000000e+00 0.000000000000e+00 0.000000000000e+00 1.000000000000e+00 0.000000000000e+00 0.000000000000e+00 1.000000000000e+00 0.000000000000e+00 0.000000000000e+00 1.000000000000e+00 0.000000000000e+00 0.000000000000e+00 1.000000000000e+00 0.000000000000e+00 0.000000000000e+00 1.000000000000e+00 0.000000000000e+00 0.000000000000e+00 1.000000000000e+00 0.000000000000e+00 0.000000000000e+00 1.000000000000e+00 0.000000000000e+00 0.000000000000e+00 1.000000000000e+00 0.000000000000e+00 0.000000000000e+00 1.000000000000e+00 0.000000000000e+00 0.000000000000e+00 1.000000000000e+00 0.000000000000e+00 0.000000000000e+00 1.000000000000e+00 0.000000000000e+00 0.000000000000e+00 1.000000000000e+00 0.000000000000e+00 0.000000000000e+00 1.000000000000e+00 0.000000000000e+00 0.000000000000e+00 1.000000000000e+00 0.000000000000e+00 0.000000000000e+00 1.000000000000e+00 0.000000000000e+00 0.000000000000e+00 1.000000000000e+00 0.000000000000e+00 0.000000000000e+00 1.000000000000e+00 0.000000000000e+00 0.000000000000e+00 1.000000000000e+00 0.000000000000e+00 0.000000000000e+00 1.000000000000e+00 0.000000000000e+00 0.000000000000e+00 1.000000000000e+00 0.000000000000e+00 0.000000000000e+00 1.000000000000e+00 0.000000000000e+00 0.000000000000e+00 1.000000000000e+00 0.000000000000e+00 0.000000000000e+00 1.000000000000e+00 0.000000000000e+00 0.000000000000e+00 1.000000000000e+00 0.000000000000e+00 0.000000000000e+00 1.000000000000e+00 0.000000000000e+00 0.000000000000e+00 1.000000000000e+00 0.000000000000e+00 0.000000000000e+00 1.000000000000e+00 0.000000000000e+00 0.000000000000e+00 1.000000000000e+00 0.000000000000e+00 0.000000000000e+00 1.000000000000e+00 0.000000000000e+00 0.000000000000e+00 1.000000000000e+00 0.000000000000e+00 0.000000000000e+00 1.000000000000e+00 0.000000000000e+00 0.000000000000e+00 1.000000000000e+00 0.000000000000e+00 0.000000000000e+00 1.000000000000e+00 0.000000000000e+00 0.000000000000e+00 1.000000000000e+00 0.000000000000e+00 0.000000000000e+00 1.000000000000e+00 0.000000000000e+00 0.000000000000e+00 1.000000000000e+00 0.000000000000e+00 0.000000000000e+00 1.000000000000e+00 0.000000000000e+00 0.000000000000e+00 1.000000000000e+00 0.000000000000e+00 0.000000000000e+00 1.000000000000e+00 0.000000000000e+00 0.000000000000e+00 1.000000000000e+00 0.000000000000e+00 0.000000000000e+00 1.000000000000e+00 0.000000000000e+00 0.000000000000e+00 1.000000000000e+00 0.000000000000e+00 0.000000000000e+00 1.000000000000e+00 0.000000000000e+00 0.000000000000e+00 1.000000000000e+00 0.000000000000e+00 0.000000000000e+00 1.000000000000e+00 0.000000000000e+00 0.000000000000e+00 1.000000000000e+00 0.000000000000e+00 0.000000000000e+00 1.000000000000e+00 0.000000000000e+00 0.000000000000e+00 1.000000000000e+00 0.000000000000e+00 0.000000000000e+00 1.000000000000e+00 0.000000000000e+00 0.000000000000e+00 1.000000000000e+00 0.000000000000e+00 0.000000000000e+00 1.000000000000e+00 0.000000000000e+00 0.000000000000e+00 1.000000000000e+00 0.000000000000e+00 0.000000000000e+00 1.000000000000e+00 0.000000000000e+00 0.000000000000e+00 1.000000000000e+00 0.000000000000e+00 0.000000000000e+00 1.000000000000e+00 0.000000000000e+00 0.000000000000e+00 1.000000000000e+00 0.000000000000e+00 0.000000000000e+00 1.000000000000e+00 0.000000000000e+00 0.000000000000e+00 1.000000000000e+00 0.000000000000e+00 0.000000000000e+00 1.000000000000e+00 0.000000000000e+00 0.000000000000e+00 1.000000000000e+00 0.000000000000e+00 0.000000000000e+00 1.000000000000e+00 0.000000000000e+00 0.000000000000e+00 1.000000000000e+00 0.000000000000e+00 0.000000000000e+00 1.000000000000e+00 0.000000000000e+00 0.000000000000e+00 1.000000000000e+00 0.000000000000e+00 0.000000000000e+00 1.000000000000e+00 0.000000000000e+00 0.000000000000e+00 1.000000000000e+00 0.000000000000e+00 0.000000000000e+00 1.000000000000e+00 0.000000000000e+00 0.000000000000e+00 1.000000000000e+00 0.000000000000e+00 0.000000000000e+00 1.000000000000e+00 0.000000000000e+00 0.000000000000e+00 1.000000000000e+00 0.000000000000e+00 0.000000000000e+00 1.000000000000e+00 0.000000000000e+00 0.000000000000e+00 1.000000000000e+00 0.000000000000e+00 0.000000000000e+00 1.000000000000e+00 0.000000000000e+00 0.000000000000e+00 1.000000000000e+00 0.000000000000e+00 0.000000000000e+00 1.000000000000e+00 0.000000000000e+00 0.000000000000e+00 1.000000000000e+00 0.000000000000e+00 0.000000000000e+00 1.000000000000e+00 0.000000000000e+00 0.000000000000e+00 1.000000000000e+00 0.000000000000e+00 0.000000000000e+00 1.000000000000e+00 0.000000000000e+00 0.000000000000e+00 1.000000000000e+00 0.000000000000e+00 0.000000000000e+00 1.000000000000e+00 0.000000000000e+00 0.000000000000e+00 1.000000000000e+00 0.000000000000e+00 0.000000000000e+00 1.000000000000e+00 0.000000000000e+00 0.000000000000e+00 1.000000000000e+00 0.000000000000e+00 0.000000000000e+00 1.000000000000e+00 0.000000000000e+00 0.000000000000e+00 1.000000000000e+00 0.000000000000e+00 0.000000000000e+00 1.000000000000e+00 
        </DataArray>
        <DataArray type="Float64" Name="NORMSTRESS_3" NumberOfComponents="3" format="ascii">
          9.999999829987e-01 1.843981815922e-04 0.000000000000e+00 9.999999919001e-01 1.272787207462e-04 0.000000000000e+00 9.999999934517e-01 1.144402942722e-04 0.000000000000e+00 9.999999938325e-01 1.110630271022e-04 0.000000000000e+00 9.999999939280e-01 1.101995951946e-04 0.000000000000e+00 9.999999939472e-01 1.100254399159e-04 0.000000000000e+00 9.999999939453e-01 1.100431218752e-04 0.000000000000e+00 9.999999939376e-01 1.101123932476e-04 0.000000000000e+00 9.999999939288e-01 1.101927022356e-04 0.000000000000e+00 9.999999939200e-01 1.102722400542e-04 0.000000000000e+00 9.999999939117e-01 1.103477089282e-04 0.000000000000e+00 9.999999939039e-01 1.104184110329e-04 0.000000000000e+00 9.999999938966e-01 1.104844027774e-04 0.000000000000e+00 9.999999938898e-01 1.105460021044e-04 0.000000000000e+00 9.999999938834e-01 1.106035036888e-04 0.000000000000e+00 9.999999938775e-01 1.106571851457e-04 0.000000000000e+00 9.999999938720e-01 1.107071381716e-04 0.000000000000e+00 9.999999938669e-01 1.107532073394e-04 0.000000000000e+00 9.999999938623e-01 1.107945495610e-04 0.000000000000e+00 9.999999938585e-01 1.108288807064e-04 0.000000000000e+00 9.999999938561e-01 1.108505447757e-04 0.000000000000e+00 9.999999938565e-01 1.108464790904e-04 0.000000000000e+00 9.999999938631e-01 1.107872898905e-04 0.000000000000e+00 9.999999938829e-01 1.106083103037e-04 0.000000000000e+00 9.999999939313e-01 1.101694560251e-04 0.000000000000e+00 9.999999940407e-01 1.091720024821e-04 0.000000000000e+00 9.999999942768e-01 1.069879199679e-04 0.000000000000e+00 9.999999947658e-01 1.023148618546e-04 0.000000000000e+00 9.999999957231e-01 9.248695322424e-05 0.000000000000e+00 9.999999973997e-01 7.211543845003e-05 0.000000000000e+00 9.999999995569e-01 2.976952133051e-05 0.000000000000e+00 9.951847265140e-01 9.801714193549e-02 0.000000000000e+00 9.951847254960e-01 9.801715227149e-02 0.000000000000e+00 9.951847246123e-01 9.801716124426e-02 0.000000000000e+00 9.951847238262e-01 9.801716922558e-02 0.000000000000e+00 9.951847231302e-01 9.801717629235e-02 0.000000000000e+00 9.951847225051e-01 9.801718263910e-02 0.000000000000e+00 9.951847219498e-01 9.801718827639e-02 0.000000000000e+00 9.951847214475e-01 9.801719337690e-02 0.000000000000e+00 9.951847209977e-01 9.801719794354e-02 0.000000000000e+00 9.951847205950e-01 9.801720203216e-02 0.000000000000e+00 9.951847202422e-01 9.801720561485e-02 0.000000000000e+00 9.951847199357e-01 9.801720872596e-02 0.000000000000e+00 9.951847196743e-01 9.801721138077e-02 0.000000000000e+00 9.951847194625e-01 9.801721353068e-02 0.000000000000e+00 9.951847193004e-01 9.801721517665e-02 0.000000000000e+00 9.951847191923e-01 9.801721627423e-02 0.000000000000e+00 9.951847191341e-01 9.801721686472e-02 0.000000000000e+00 9.951847191336e-01 9.801721687010e-02 0.000000000000e+00 9.951847191880e-01 9.801721631775e-02 0.000000000000e+00 9.951847193048e-01 9.801721513156e-02 0.000000000000e+00 9.951847194822e-01 9.801721333035e-02 0.000000000000e+00 9.951847197358e-01 9.801721075584e-02 0.000000000000e+00 9.951847200660e-01 9.801720740289e-02 0.000000000000e+00 9.951847204871e-01 9.801720312746e-02 0.000000000000e+00 9.951847209921e-01 9.801719800052e-02 0.000000000000e+00 9.951847215986e-01 9.801719184228e-02 0.000000000000e+00 9.951847223036e-01 9.801718468469e-02 0.000000000000e+00 9.951847231301e-01 9.801717629342e-02 0.000000000000e+00 9.951847240729e-01 9.801716672110e-02 0.000000000000e+00 9.951847251555e-01 9.801715572875e-02 0.000000000000e+00 9.951847265115e-01 9.801714196122e-02 0.000000000000e+00 9.807852797848e-01 1.950903251250e-01 0.000000000000e+00 9.807852760255e-01 1.950903440245e-01 0.000000000000e+00 9.807852727181e-01 1.950903606521e-01 0.000000000000e+00 9.807852697767e-01 1.950903754395e-01 0.000000000000e+00 9.807852671544e-01 1.950903886225e-01 0.000000000000e+00 9.807852648095e-01 1.950904004111e-01 0.000000000000e+00 9.807852627103e-01 1.950904109644e-01 0.000000000000e+00 9.807852608331e-01 1.950904204017e-01 0.000000000000e+00 9.807852591677e-01 1.950904287744e-01 0.000000000000e+00 9.807852576903e-01 1.950904362015e-01 0.000000000000e+00 9.807852563946e-01 1.950904427156e-01 0.000000000000e+00 9.807852552756e-01 1.950904483413e-01 0.000000000000e+00 9.807852543479e-01 1.950904530050e-01 0.000000000000e+00 9.807852536120e-01 1.950904567047e-01 0.000000000000e+00 9.807852530686e-01 1.950904594365e-01 0.000000000000e+00 9.807852527248e-01 1.950904611648e-01 0.000000000000e+00 9.807852525759e-01 1.950904619135e-01 0.000000000000e+00 9.807852526379e-01 1.950904616020e-01 0.000000000000e+00 9.807852528971e-01 1.950904602989e-01 0.000000000000e+00 9.807852533969e-01 1.950904577860e-01 0.000000000000e+00 9.807852541250e-01 1.950904541256e-01 0.000000000000e+00 9.807852551304e-01 1.950904490710e-01 0.000000000000e+00 9.807852563873e-01 1.950904427525e-01 0.000000000000e+00 9.807852579637e-01 1.950904348274e-01 0.000000000000e+00 9.807852598422e-01 1.950904253831e-01 0.000000000000e+00 9.807852620889e-01 1.950904140884e-01 0.000000000000e+00 9.807852646679e-01 1.950904011229e-01 0.000000000000e+00 9.807852676529e-01 1.950903861162e-01 0.000000000000e+00 9.807852710326e-01 1.950903691253e-01 0.000000000000e+00 9.807852749181e-01 1.950903495919e-01 0.000000000000e+00 9.807852798015e-01 1.950903250415e-01 0.000000000000e+00 9.569403343876e-01 2.902846816870e-01 0.000000000000e+00 9.569403268575e-01 2.902847065106e-01 0.000000000000e+00 9.569403201482e-01 2.902847286282e-01 0.000000000000e+00 9.569403141594e-01 2.902847483706e-01 0.000000000000e+00 9.569403087823e-01 2.902847660965e-01 0.000000000000e+00 9.569403039952e-01 2.902847818774e-01 0.000000000000e+00 9.569402997085e-01 2.902847960086e-01 0.000000000000e+00 9.569402959189e-01 2.902848085014e-01 0.000000000000e+00 9.569402925515e-01 2.902848196023e-01 0.000000000000e+00 9.569402896250e-01 2.902848292495e-01 0.000000000000e+00 9.569402870885e-01 2.902848376112e-01 0.000000000000e+00 9.569402849708e-01 2.902848445922e-01 0.000000000000e+00 9.569402832375e-01 2.902848503062e-01 0.000000000000e+00 9.569402819265e-01 2.902848546279e-01 0.000000000000e+00 9.569402810202e-01 2.902848576157e-01 0.000000000000e+00 9.569402805386e-01 2.902848592035e-01 0.000000000000e+00 9.569402804621e-01 2.902848594556e-01 0.000000000000e+00 9.569402808134e-01 2.902848582973e-01 0.000000000000e+00 9.569402815994e-01 2.902848557063e-01 0.000000000000e+00 9.569402828402e-01 2.902848516160e-01 0.000000000000e+00 9.569402845398e-01 2.902848460130e-01 0.000000000000e+00 9.569402867376e-01 2.902848387680e-01 0.000000000000e+00 9.569402894594e-01 2.902848297953e-01 0.000000000000e+00 9.569402927494e-01 2.902848189499e-01 0.000000000000e+00 9.569402966000e-01 2.902848062559e-01 0.000000000000e+00 9.569403010667e-01 2.902847915313e-01 0.000000000000e+00 9.569403061513e-01 2.902847747698e-01 0.000000000000e+00 9.569403119271e-01 2.902847557294e-01 0.000000000000e+00 9.569403183771e-01 2.902847344666e-01 0.000000000000e+00 9.569403256271e-01 2.902847105666e-01 0.000000000000e+00 9.569403344437e-01 2.902846815021e-01 0.000000000000e+00 9.238795302023e-01 3.826834379396e-01 0.000000000000e+00 9.238795185123e-01 3.826834661616e-01 0.000000000000e+00 9.238795079858e-01 3.826834915748e-01 0.000000000000e+00 9.238794985182e-01 3.826835144318e-01 0.000000000000e+00 9.238794900057e-01 3.826835349826e-01 0.000000000000e+00 9.238794824166e-01 3.826835533043e-01 0.000000000000e+00 9.238794756517e-01 3.826835696361e-01 0.000000000000e+00 9.238794696958e-01 3.826835840150e-01 0.000000000000e+00 9.238794644526e-01 3.826835966732e-01 0.000000000000e+00 9.238794599628e-01 3.826836075127e-01 0.000000000000e+00 9.238794561492e-01 3.826836167193e-01 0.000000000000e+00 9.238794530523e-01 3.826836241960e-01 0.000000000000e+00 9.238794505956e-01 3.826836301269e-01 0.000000000000e+00 9.238794488431e-01 3.826836343579e-01 0.000000000000e+00 9.238794477460e-01 3.826836370066e-01 0.000000000000e+00 9.238794473422e-01 3.826836379815e-01 0.000000000000e+00 9.238794475979e-01 3.826836373640e-01 0.000000000000e+00 9.238794485460e-01 3.826836350751e-01 0.000000000000e+00 9.238794501847e-01 3.826836311191e-01 0.000000000000e+00 9.238794525052e-01 3.826836255167e-01 0.000000000000e+00 9.238794555455e-01 3.826836181770e-01 0.000000000000e+00 9.238794593047e-01 3.826836091014e-01 0.000000000000e+00 9.238794638636e-01 3.826835980953e-01 0.000000000000e+00 9.238794691593e-01 3.826835853102e-01 0.000000000000e+00 9.238794752739e-01 3.826835705482e-01 0.000000000000e+00 9.238794821372e-01 3.826835539789e-01 0.000000000000e+00 9.238794898857e-01 3.826835352724e-01 0.000000000000e+00 9.238794984357e-01 3.826835146308e-01 0.000000000000e+00 9.238795079163e-01 3.826834917426e-01 0.000000000000e+00 9.238795182702e-01 3.826834667461e-01 0.000000000000e+00 9.238795303364e-01 3.826834376157e-01 0.000000000000e+00 8.819212608350e-01 4.713967433990e-01 0.000000000000e+00 8.819212449070e-01 4.713967731983e-01 0.000000000000e+00 8.819212304617e-01 4.713968002235e-01 0.000000000000e+00 8.819212173872e-01 4.713968246842e-01 0.000000000000e+00 8.819212056554e-01 4.713968466327e-01 0.000000000000e+00 8.819211951338e-01 4.713968663173e-01 0.000000000000e+00 8.819211858096e-01 4.713968837616e-01 0.000000000000e+00 8.819211775847e-01 4.713968991493e-01 0.000000000000e+00 8.819211704877e-01 4.713969124269e-01 0.000000000000e+00 8.819211644103e-01 4.713969237968e-01 0.000000000000e+00 8.819211593644e-01 4.713969332371e-01 0.000000000000e+00 8.819211552836e-01 4.713969408717e-01 0.000000000000e+00 8.819211522092e-01 4.713969466236e-01 0.000000000000e+00 8.819211500827e-01 4.713969506018e-01 0.000000000000e+00 8.819211489186e-01 4.713969527798e-01 0.000000000000e+00 8.819211486860e-01 4.713969532150e-01 0.000000000000e+00 8.819211494280e-01 4.713969518268e-01 0.000000000000e+00 8.819211510967e-01 4.713969487048e-01 0.000000000000e+00 8.819211537419e-01 4.713969437560e-01 0.000000000000e+00 8.819211573036e-01 4.713969370926e-01 0.000000000000e+00 8.819211618907e-01 4.713969285107e-01 0.000000000000e+00 8.819211673696e-01 4.713969182604e-01 0.000000000000e+00 8.819211738847e-01 4.713969060715e-01 0.000000000000e+00 8.819211812638e-01 4.713968922662e-01 0.000000000000e+00 8.819211897278e-01 4.713968764313e-01 0.000000000000e+00 8.819211990352e-01 4.713968590183e-01 0.000000000000e+00 8.819212094342e-01 4.713968395632e-01 0.000000000000e+00 8.819212206758e-01 4.713968185317e-01 0.000000000000e+00 8.819212330280e-01 4.713967954222e-01 0.000000000000e+00 8.819212462636e-01 4.713967706602e-01 0.000000000000e+00 8.819212610597e-01 4.713967429786e-01 0.000000000000e+00 8.314696073501e-01 5.555702404315e-01 0.000000000000e+00 8.314695871406e-01 5.555702706771e-01 0.000000000000e+00 8.314695687854e-01 5.555702981477e-01 0.000000000000e+00 8.314695521590e-01 5.555703230307e-01 0.000000000000e+00 8.314695372199e-01 5.555703453887e-01 0.000000000000e+00 8.314695238225e-01 5.555703654394e-01 0.000000000000e+00 8.314695119602e-01 5.555703831925e-01 0.000000000000e+00 8.314695014927e-01 5.555703988582e-01 0.000000000000e+00 8.314694924850e-01 5.555704123392e-01 0.000000000000e+00 8.314694847688e-01 5.555704238873e-01 0.000000000000e+00 8.314694784353e-01 5.555704333661e-01 0.000000000000e+00 8.314694732963e-01 5.555704410572e-01 0.000000000000e+00 8.314694695040e-01 5.555704467327e-01 0.000000000000e+00 8.314694668592e-01 5.555704506909e-01 0.000000000000e+00 8.314694655102e-01 5.555704527098e-01 0.000000000000e+00 8.314694652659e-01 5.555704530755e-01 0.000000000000e+00 8.314694663031e-01 5.555704515232e-01 0.000000000000e+00 8.314694685039e-01 5.555704482295e-01 0.000000000000e+00 8.314694720053e-01 5.555704429893e-01 0.000000000000e+00 8.314694766917e-01 5.555704359755e-01 0.000000000000e+00 8.314694826175e-01 5.555704271069e-01 0.000000000000e+00 8.314694897149e-01 5.555704164850e-01 0.000000000000e+00 8.314694980250e-01 5.555704040480e-01 0.000000000000e+00 8.314695075129e-01 5.555703898484e-01 0.000000000000e+00 8.314695182032e-01 5.555703738492e-01 0.000000000000e+00 8.314695300593e-01 5.555703561053e-01 0.000000000000e+00 8.314695431262e-01 5.555703365493e-01 0.000000000000e+00 8.314695573424e-01 5.555703152733e-01 0.000000000000e+00 8.314695727709e-01 5.555702921829e-01 0.000000000000e+00 8.314695893988e-01 5.555702672974e-01 0.000000000000e+00 8.314696076562e-01 5.555702399733e-01 0.000000000000e+00 7.730104467582e-01 6.343932922113e-01 0.000000000000e+00 7.730104223987e-01 6.343933218934e-01 0.000000000000e+00 7.730104003506e-01 6.343933487591e-01 0.000000000000e+00 7.730103804538e-01 6.343933730035e-01 0.000000000000e+00 7.730103625345e-01 6.343933948381e-01 0.000000000000e+00 7.730103464961e-01 6.343934143810e-01 0.000000000000e+00 7.730103322246e-01 6.343934317709e-01 0.000000000000e+00 7.730103196592e-01 6.343934470818e-01 0.000000000000e+00 7.730103087062e-01 6.343934604281e-01 0.000000000000e+00 7.730102993551e-01 6.343934718225e-01 0.000000000000e+00 7.730102915633e-01 6.343934813168e-01 0.000000000000e+00 7.730102852833e-01 6.343934889689e-01 0.000000000000e+00 7.730102804574e-01 6.343934948493e-01 0.000000000000e+00 7.730102770488e-01 6.343934990027e-01 0.000000000000e+00 7.730102750932e-01 6.343935013857e-01 0.000000000000e+00 7.730102745420e-01 6.343935020573e-01 0.000000000000e+00 7.730102754434e-01 6.343935009589e-01 0.000000000000e+00 7.730102777774e-01 6.343934981150e-01 0.000000000000e+00 7.730102816317e-01 6.343934934185e-01 0.000000000000e+00 7.730102869760e-01 6.343934869065e-01 0.000000000000e+00 7.730102937851e-01 6.343934786095e-01 0.000000000000e+00 7.730103021116e-01 6.343934684636e-01 0.000000000000e+00 7.730103118904e-01 6.343934565481e-01 0.000000000000e+00 7.730103232690e-01 6.343934426833e-01 0.000000000000e+00 7.730103360147e-01 6.343934271526e-01 0.000000000000e+00 7.730103504030e-01 6.343934096204e-01 0.000000000000e+00 7.730103662218e-01 6.343933903452e-01 0.000000000000e+00 7.730103838108e-01 6.343933689129e-01 0.000000000000e+00 7.730104028849e-01 6.343933456710e-01 0.000000000000e+00 7.730104237743e-01 6.343933202172e-01 0.000000000000e+00 7.730104470863e-01 6.343932918115e-01 0.000000000000e+00 7.071067737360e-01 7.071067886371e-01 0.000000000000e+00 7.071067450685e-01 7.071068173046e-01 0.000000000000e+00 7.071067199738e-01 7.071068423993e-01 0.000000000000e+00 7.071066975540e-01 7.071068648191e-01 0.000000000000e+00 7.071066772783e-01 7.071068850948e-01 0.000000000000e+00 7.071066593291e-01 7.071069030440e-01 0.000000000000e+00 7.071066428985e-01 7.071069194746e-01 0.000000000000e+00 7.071066287680e-01 7.071069336051e-01 0.000000000000e+00 7.071066160927e-01 7.071069462804e-01 0.000000000000e+00 7.071066052676e-01 7.071069571054e-01 0.000000000000e+00 7.071065961179e-01 7.071069662551e-01 0.000000000000e+00 7.071065887653e-01 7.071069736078e-01 0.000000000000e+00 7.071065825898e-01 7.071069797833e-01 0.000000000000e+00 7.071065783719e-01 7.071069840011e-01 0.000000000000e+00 7.071065754506e-01 7.071069869224e-01 0.000000000000e+00 7.071065743071e-01 7.071069880659e-01 0.000000000000e+00 7.071065745756e-01 7.071069877974e-01 0.000000000000e+00 7.071065767363e-01 7.071069856367e-01 0.000000000000e+00 7.071065804352e-01 7.071069819378e-01 0.000000000000e+00 7.071065858306e-01 7.071069765424e-01 0.000000000000e+00 7.071065929948e-01 7.071069693782e-01 0.000000000000e+00 7.071066020624e-01 7.071069603106e-01 0.000000000000e+00 7.071066128463e-01 7.071069495268e-01 0.000000000000e+00 7.071066254355e-01 7.071069369375e-01 0.000000000000e+00 7.071066400182e-01 7.071069223549e-01 0.000000000000e+00 7.071066562920e-01 7.071069060810e-01 0.000000000000e+00 7.071066750321e-01 7.071068873410e-01 0.000000000000e+00 7.071066955859e-01 7.071068667872e-01 0.000000000000e+00 7.071067184068e-01 7.071068439663e-01 0.000000000000e+00 7.071067439336e-01 7.071068184394e-01 0.000000000000e+00 7.071067737360e-01 7.071067886371e-01 0.000000000000e+00 6.343932737966e-01 7.730104618708e-01 0.000000000000e+00 6.343932443801e-01 7.730104860123e-01 0.000000000000e+00 6.343932180532e-01 7.730105076182e-01 0.000000000000e+00 6.343931943530e-01 7.730105270684e-01 0.000000000000e+00 6.343931730509e-01 7.730105445506e-01 0.000000000000e+00 6.343931539138e-01 7.730105602560e-01 0.000000000000e+00 6.343931367937e-01 7.730105743061e-01 0.000000000000e+00 6.343931215342e-01 7.730105868292e-01 0.000000000000e+00 6.343931081015e-01 7.730105978532e-01 0.000000000000e+00 6.343930963757e-01 7.730106074763e-01 0.000000000000e+00 6.343930863677e-01 7.730106156896e-01 0.000000000000e+00 6.343930779456e-01 7.730106226015e-01 0.000000000000e+00 6.343930711876e-01 7.730106281476e-01 0.000000000000e+00 6.343930660070e-01 7.730106323992e-01 0.000000000000e+00 6.343930625029e-01 7.730106352749e-01 0.000000000000e+00 6.343930605741e-01 7.730106368579e-01 0.000000000000e+00 6.343930603330e-01 7.730106370557e-01 0.000000000000e+00 6.343930618314e-01 7.730106358260e-01 0.000000000000e+00 6.343930651496e-01 7.730106331029e-01 0.000000000000e+00 6.343930703515e-01 7.730106288338e-01 0.000000000000e+00 6.343930773825e-01 7.730106230636e-01 0.000000000000e+00 6.343930864780e-01 7.730106155991e-01 0.000000000000e+00 6.343930975027e-01 7.730106065514e-01 0.000000000000e+00 6.343931107490e-01 7.730105956804e-01 0.000000000000e+00 6.343931260369e-01 7.730105831340e-01 0.000000000000e+00 6.343931437942e-01 7.730105685609e-01 0.000000000000e+00 6.343931638708e-01 7.730105520845e-01 0.000000000000e+00 6.343931865691e-01 7.730105334565e-01 0.000000000000e+00 6.343932118991e-01 7.730105126687e-01 0.000000000000e+00 6.343932402098e-01 7.730104894347e-01 0.000000000000e+00 6.343932740817e-01 7.730104616368e-01 0.000000000000e+00 5.555702207000e-01 8.314696205342e-01 0.000000000000e+00 5.555701922519e-01 8.314696395426e-01 0.000000000000e+00 5.555701667804e-01 8.314696565622e-01 0.000000000000e+00 5.555701438284e-01 8.314696718982e-01 0.000000000000e+00 5.555701231614e-01 8.314696857074e-01 0.000000000000e+00 5.555701045776e-01 8.314696981248e-01 0.000000000000e+00 5.555700879015e-01 8.314697092673e-01 0.000000000000e+00 5.555700730027e-01 8.314697192224e-01 0.000000000000e+00 5.555700598026e-01 8.314697280424e-01 0.000000000000e+00 5.555700482479e-01 8.314697357630e-01 0.000000000000e+00 5.555700382858e-01 8.314697424195e-01 0.000000000000e+00 5.555700298894e-01 8.314697480298e-01 0.000000000000e+00 5.555700230542e-01 8.314697525969e-01 0.000000000000e+00 5.555700177710e-01 8.314697561270e-01 0.000000000000e+00 5.555700140507e-01 8.314697586129e-01 0.000000000000e+00 5.555700119106e-01 8.314697600428e-01 0.000000000000e+00 5.555700114297e-01 8.314697603641e-01 0.000000000000e+00 5.555700126208e-01 8.314697595683e-01 0.000000000000e+00 5.555700155956e-01 8.314697575806e-01 0.000000000000e+00 5.555700203441e-01 8.314697544077e-01 0.000000000000e+00 5.555700270089e-01 8.314697499545e-01 0.000000000000e+00 5.555700355537e-01 8.314697442450e-01 0.000000000000e+00 5.555700461991e-01 8.314697371320e-01 0.000000000000e+00 5.555700589366e-01 8.314697286210e-01 0.000000000000e+00 5.555700739639e-01 8.314697185802e-01 0.000000000000e+00 5.555700912734e-01 8.314697070143e-01 0.000000000000e+00 5.555701110965e-01 8.314696937690e-01 0.000000000000e+00 5.555701335591e-01 8.314696787599e-01 0.000000000000e+00 5.555701587676e-01 8.314696619161e-01 0.000000000000e+00 5.555701869475e-01 8.314696430870e-01 0.000000000000e+00 5.555702209197e-01 8.314696203875e-01 0.000000000000e+00 4.713967225803e-01 8.819212719629e-01 0.000000000000e+00 4.713966979777e-01 8.819212851132e-01 0.000000000000e+00 4.713966757803e-01 8.819212969780e-01 0.000000000000e+00 4.713966556937e-01 8.819213077145e-01 0.000000000000e+00 4.713966375394e-01 8.819213174182e-01 0.000000000000e+00 4.713966211656e-01 8.819213261701e-01 0.000000000000e+00 4.713966064632e-01 8.819213340287e-01 0.000000000000e+00 4.713965933531e-01 8.819213410362e-01 0.000000000000e+00 4.713965817483e-01 8.819213472391e-01 0.000000000000e+00 4.713965715970e-01 8.819213526651e-01 0.000000000000e+00 4.713965628676e-01 8.819213573310e-01 0.000000000000e+00 4.713965555574e-01 8.819213612384e-01 0.000000000000e+00 4.713965496432e-01 8.819213643996e-01 0.000000000000e+00 4.713965451340e-01 8.819213668098e-01 0.000000000000e+00 4.713965420506e-01 8.819213684579e-01 0.000000000000e+00 4.713965404461e-01 8.819213693156e-01 0.000000000000e+00 4.713965403088e-01 8.819213693890e-01 0.000000000000e+00 4.713965416465e-01 8.819213686740e-01 0.000000000000e+00 4.713965444669e-01 8.819213671664e-01 0.000000000000e+00 4.713965488723e-01 8.819213648117e-01 0.000000000000e+00 4.713965548996e-01 8.819213615900e-01 0.000000000000e+00 4.713965626275e-01 8.819213574594e-01 0.000000000000e+00 4.713965720891e-01 8.819213524021e-01 0.000000000000e+00 4.713965834089e-01 8.819213463515e-01 0.000000000000e+00 4.713965966270e-01 8.819213392862e-01 0.000000000000e+00 4.713966118325e-01 8.819213311588e-01 0.000000000000e+00 4.713966290992e-01 8.819213219295e-01 0.000000000000e+00 4.713966485406e-01 8.819213115379e-01 0.000000000000e+00 4.713966702395e-01 8.819212999396e-01 0.000000000000e+00 4.713966942643e-01 8.819212870981e-01 0.000000000000e+00 4.713967228193e-01 8.819212718351e-01 0.000000000000e+00 3.826834162255e-01 9.238795391965e-01 0.000000000000e+00 3.826833977117e-01 9.238795468652e-01 0.000000000000e+00 3.826833807211e-01 9.238795539029e-01 0.000000000000e+00 3.826833651728e-01 9.238795603433e-01 0.000000000000e+00 3.826833510109e-01 9.238795662093e-01 0.000000000000e+00 3.826833382055e-01 9.238795715135e-01 0.000000000000e+00 3.826833267325e-01 9.238795762657e-01 0.000000000000e+00 3.826833165479e-01 9.238795804843e-01 0.000000000000e+00 3.826833075928e-01 9.238795841937e-01 0.000000000000e+00 3.826832998461e-01 9.238795874024e-01 0.000000000000e+00 3.826832932893e-01 9.238795901184e-01 0.000000000000e+00 3.826832879203e-01 9.238795923423e-01 0.000000000000e+00 3.826832837416e-01 9.238795940732e-01 0.000000000000e+00 3.826832807855e-01 9.238795952976e-01 0.000000000000e+00 3.826832790443e-01 9.238795960188e-01 0.000000000000e+00 3.826832784981e-01 9.238795962451e-01 0.000000000000e+00 3.826832791259e-01 9.238795959850e-01 0.000000000000e+00 3.826832809303e-01 9.238795952376e-01 0.000000000000e+00 3.826832838861e-01 9.238795940133e-01 0.000000000000e+00 3.826832879983e-01 9.238795923100e-01 0.000000000000e+00 3.826832933056e-01 9.238795901116e-01 0.000000000000e+00 3.826832998487e-01 9.238795874014e-01 0.000000000000e+00 3.826833076166e-01 9.238795841838e-01 0.000000000000e+00 3.826833166202e-01 9.238795804544e-01 0.000000000000e+00 3.826833269355e-01 9.238795761817e-01 0.000000000000e+00 3.826833385776e-01 9.238795713593e-01 0.000000000000e+00 3.826833514912e-01 9.238795660103e-01 0.000000000000e+00 3.826833656140e-01 9.238795601605e-01 0.000000000000e+00 3.826833810348e-01 9.238795537730e-01 0.000000000000e+00 3.826833978265e-01 9.238795468176e-01 0.000000000000e+00 3.826834165467e-01 9.238795390635e-01 0.000000000000e+00 2.902846592563e-01 9.569403411919e-01 0.000000000000e+00 2.902846477845e-01 9.569403446718e-01 0.000000000000e+00 2.902846368997e-01 9.569403479737e-01 0.000000000000e+00 2.902846267367e-01 9.569403510566e-01 0.000000000000e+00 2.902846173308e-01 9.569403539098e-01 0.000000000000e+00 2.902846087362e-01 9.569403565170e-01 0.000000000000e+00 2.902846010278e-01 9.569403588553e-01 0.000000000000e+00 2.902845942420e-01 9.569403609138e-01 0.000000000000e+00 2.902845883461e-01 9.569403627022e-01 0.000000000000e+00 2.902845833384e-01 9.569403642213e-01 0.000000000000e+00 2.902845792536e-01 9.569403654604e-01 0.000000000000e+00 2.902845761322e-01 9.569403664073e-01 0.000000000000e+00 2.902845739316e-01 9.569403670748e-01 0.000000000000e+00 2.902845726624e-01 9.569403674599e-01 0.000000000000e+00 2.902845723253e-01 9.569403675621e-01 0.000000000000e+00 2.902845729474e-01 9.569403673734e-01 0.000000000000e+00 2.902845744087e-01 9.569403669301e-01 0.000000000000e+00 2.902845766904e-01 9.569403662380e-01 0.000000000000e+00 2.902845796942e-01 9.569403653268e-01 0.000000000000e+00 2.902845834539e-01 9.569403641863e-01 0.000000000000e+00 2.902845878228e-01 9.569403628610e-01 0.000000000000e+00 2.902845928971e-01 9.569403613217e-01 0.000000000000e+00 2.902845985899e-01 9.569403595948e-01 0.000000000000e+00 2.902846049906e-01 9.569403576532e-01 0.000000000000e+00 2.902846118685e-01 9.569403555668e-01 0.000000000000e+00 2.902846192667e-01 9.569403533226e-01 0.000000000000e+00 2.902846269988e-01 9.569403509771e-01 0.000000000000e+00 2.902846351042e-01 9.569403485183e-01 0.000000000000e+00 2.902846433783e-01 9.569403460084e-01 0.000000000000e+00 2.902846519185e-01 9.569403434178e-01 0.000000000000e+00 2.902846596039e-01 9.569403410864e-01 0.000000000000e+00 1.950903021536e-01 9.807852843541e-01 0.000000000000e+00 1.950902976128e-01 9.807852852573e-01 0.000000000000e+00 1.950902927911e-01 9.807852862165e-01 0.000000000000e+00 1.950902879637e-01 9.807852871767e-01 0.000000000000e+00 1.950902831694e-01 9.807852881303e-01 0.000000000000e+00 1.950902785415e-01 9.807852890509e-01 0.000000000000e+00 1.950902742609e-01 9.807852899023e-01 0.000000000000e+00 1.950902704583e-01 9.807852906587e-01 0.000000000000e+00 1.950902672186e-01 9.807852913031e-01 0.000000000000e+00 1.950902645603e-01 9.807852918319e-01 0.000000000000e+00 1.950902625403e-01 9.807852922337e-01 0.000000000000e+00 1.950902611884e-01 9.807852925026e-01 0.000000000000e+00 1.950902605300e-01 9.807852926336e-01 0.000000000000e+00 1.950902604917e-01 9.807852926412e-01 0.000000000000e+00 1.950902611092e-01 9.807852925184e-01 0.000000000000e+00 1.950902623519e-01 9.807852922712e-01 0.000000000000e+00 1.950902642246e-01 9.807852918987e-01 0.000000000000e+00 1.950902665158e-01 9.807852914429e-01 0.000000000000e+00 1.950902692159e-01 9.807852909058e-01 0.000000000000e+00 1.950902722198e-01 9.807852903083e-01 0.000000000000e+00 1.950902755911e-01 9.807852896377e-01 0.000000000000e+00 1.950902791017e-01 9.807852889394e-01 0.000000000000e+00 1.950902827686e-01 9.807852882100e-01 0.000000000000e+00 1.950902864303e-01 9.807852874817e-01 0.000000000000e+00 1.950902901146e-01 9.807852867488e-01 0.000000000000e+00 1.950902935621e-01 9.807852860631e-01 0.000000000000e+00 1.950902967355e-01 9.807852854319e-01 0.000000000000e+00 1.950902994897e-01 9.807852848840e-01 0.000000000000e+00 1.950903017670e-01 9.807852844310e-01 0.000000000000e+00 1.950903033741e-01 9.807852841114e-01 0.000000000000e+00 1.950903024520e-01 9.807852842948e-01 0.000000000000e+00 9.801711810139e-02 9.951847288615e-01 0.000000000000e+00 9.801712159970e-02 9.951847285169e-01 0.000000000000e+00 9.801712281110e-02 9.951847283976e-01 0.000000000000e+00 9.801712186184e-02 9.951847284911e-01 0.000000000000e+00 9.801712005466e-02 9.951847286691e-01 0.000000000000e+00 9.801711800471e-02 9.951847288710e-01 0.000000000000e+00 9.801711603957e-02 9.951847290646e-01 0.000000000000e+00 9.801711431034e-02 9.951847292349e-01 0.000000000000e+00 9.801711289967e-02 9.951847293738e-01 0.000000000000e+00 9.801711183062e-02 9.951847294791e-01 0.000000000000e+00 9.801711112991e-02 9.951847295481e-01 0.000000000000e+00 9.801711080525e-02 9.951847295801e-01 0.000000000000e+00 9.801711086810e-02 9.951847295739e-01 0.000000000000e+00 9.801711129071e-02 9.951847295323e-01 0.000000000000e+00 9.801711206494e-02 9.951847294560e-01 0.000000000000e+00 9.801711316338e-02 9.951847293478e-01 0.000000000000e+00 9.801711459774e-02 9.951847292066e-01 0.000000000000e+00 9.801711626252e-02 9.951847290426e-01 0.000000000000e+00 9.801711812464e-02 9.951847288592e-01 0.000000000000e+00 9.801712007272e-02 9.951847286673e-01 0.000000000000e+00 9.801712219830e-02 9.951847284580e-01 0.000000000000e+00 9.801712431779e-02 9.951847282492e-01 0.000000000000e+00 9.801712644315e-02 9.951847280399e-01 0.000000000000e+00 9.801712828246e-02 9.951847278587e-01 0.000000000000e+00 9.801712996395e-02 9.951847276931e-01 0.000000000000e+00 9.801713104547e-02 9.951847275866e-01 0.000000000000e+00 9.801713144451e-02 9.951847275473e-01 0.000000000000e+00 9.801713045844e-02 9.951847276444e-01 0.000000000000e+00 9.801712811123e-02 9.951847278756e-01 0.000000000000e+00 9.801712402153e-02 9.951847282784e-01 0.000000000000e+00 9.801711888074e-02 9.951847287847e-01 0.000000000000e+00 1.843877016963e-04 9.999999830006e-01 0.000000000000e+00 1.272718153837e-04 9.999999919009e-01 0.000000000000e+00 1.144330979499e-04 9.999999934525e-01 0.000000000000e+00 1.110555882196e-04 9.999999938333e-01 0.000000000000e+00 1.101920455208e-04 9.999999939289e-01 0.000000000000e+00 1.100179141767e-04 9.999999939480e-01 0.000000000000e+00 1.100356869126e-04 9.999999939461e-01 0.000000000000e+00 1.101051062583e-04 9.999999939384e-01 0.000000000000e+00 1.101855742896e-04 9.999999939296e-01 0.000000000000e+00 1.102652915481e-04 9.999999939208e-01 0.000000000000e+00 1.103409662387e-04 9.999999939124e-01 0.000000000000e+00 1.104119103923e-04 9.999999939046e-01 0.000000000000e+00 1.104781633621e-04 9.999999938973e-01 0.000000000000e+00 1.105400151451e-04 9.999999938905e-01 0.000000000000e+00 1.105977743285e-04 9.999999938841e-01 0.000000000000e+00 1.106517303686e-04 9.999999938781e-01 0.000000000000e+00 1.107019939195e-04 9.999999938725e-01 0.000000000000e+00 1.107483824157e-04 9.999999938674e-01 0.000000000000e+00 1.107900552782e-04 9.999999938628e-01 0.000000000000e+00 1.108247206260e-04 9.999999938589e-01 0.000000000000e+00 1.108467534374e-04 9.999999938565e-01 0.000000000000e+00 1.108430876615e-04 9.999999938569e-01 0.000000000000e+00 1.107843512002e-04 9.999999938634e-01 0.000000000000e+00 1.106058482527e-04 9.999999938832e-01 0.000000000000e+00 1.101675161219e-04 9.999999939316e-01 0.000000000000e+00 1.091706246156e-04 9.999999940409e-01 0.000000000000e+00 1.069871567682e-04 9.999999942769e-01 0.000000000000e+00 1.023146451748e-04 9.999999947659e-01 0.000000000000e+00 9.248694849714e-05 9.999999957231e-01 0.000000000000e+00 7.211458006991e-05 9.999999973997e-01 0.000000000000e+00 2.976381639021e-05 9.999999995571e-01 0.000000000000e+00 
        </DataArray>
      </PointData>
      <CellData>
        <DataArray type="Int32" Name="MatGroup" format="ascii">
          0 0 0 0 0 0 0 0 0 0 0 0 0 0 0 0 0 0 0 0 0 0 0 0 0 0 0 0 0 0 0 0 0 0 0 0 0 0 0 0 0 0 0 0 0 0 0 0 0 0 0 0 0 0 0 0 0 0 0 0 0 0 0 0 0 0 0 0 0 0 0 0 0 0 0 0 0 0 0 0 0 0 0 0 0 0 0 0 0 0 0 0 0 0 0 0 0 0 0 0 0 0 0 0 0 0 0 0 0 0 0 0 0 0 0 0 0 0 0 0 0 0 0 0 0 0 0 0 0 0 0 0 0 0 0 0 0 0 0 0 0 0 0 0 0 0 0 0 0 0 0 0 0 0 0 0 0 0 0 0 0 0 0 0 0 0 0 0 0 0 0 0 0 0 0 0 0 0 0 0 0 0 0 0 0 0 0 0 0 0 0 0 0 0 0 0 0 0 0 0 0 0 0 0 0 0 0 0 0 0 0 0 0 0 0 0 0 0 0 0 0 0 0 0 0 0 0 0 0 0 0 0 0 0 0 0 0 0 0 0 0 0 0 0 0 0 0 0 0 0 0 0 0 0 0 0 0 0 0 0 0 0 0 0 0 0 0 0 0 0 0 0 0 0 0 0 0 0 0 0 0 0 0 0 0 0 0 0 0 0 0 0 0 0 0 0 0 0 0 0 0 0 0 0 0 0 0 0 0 0 0 0 0 0 0 0 0 0 0 0 0 0 0 0 0 0 0 0 0 0 0 0 0 0 0 0 0 0 0 0 0 0 0 0 0 0 0 0 0 0 0 0 0 0 0 0 0 0 0 0 0 0 0 0 0 0 0 0 0 0 0 0 0 0 0 0 0 0 0 0 0 0 0 0 0 0 0 0 0 0 0 0 0 0 0 0 0 0 0 0 0 0 0 0 0 0 0 0 0 0 0 0 0 0 0 0 0 0 0 0 0 0 0 0 0 0 0 0 0 0 0 0 0 0 0 0 0 0 0 0 0 0 0 0 0 0 0 0 0 0 0 0 0 0 0 0 0 0 0 0 0 0 0 0 0 0 0 0 0 0 0 0 0 0 0 0 0 0 0 0 
        </DataArray>
      </CellData>
    </Piece>
  </UnstructuredGrid>
</VTKFile>
