<?xml version="1.0"?>
<!-- Time step: 1 | Time: 1.000000000000e+00 -->
<VTKFile type="UnstructuredGrid" version="0.1" byte_order="LittleEndian">
  <UnstructuredGrid>
    <Piece NumberOfPoints="527" NumberOfCells="480">
      <Points>
        <DataArray type="Float64" NumberOfComponents="3" format="ascii">
          1.000000000000e-03 0.000000000000e+00 0.000000000000e+00
          1.033333333333e-03 0.000000000000e+00 0.000000000000e+00
          1.066666666667e-03 0.000000000000e+00 0.000000000000e+00
          1.100000000000e-03 0.000000000000e+00 0.000000000000e+00
          1.133333333333e-03 0.000000000000e+00 0.000000000000e+00
          1.166666666667e-03 0.000000000000e+00 0.000000000000e+00
          1.200000000000e-03 0.000000000000e+00 0.000000000000e+00
          1.233333333333e-03 0.000000000000e+00 0.000000000000e+00
          1.266666666667e-03 0.000000000000e+00 0.000000000000e+00
          1.300000000000e-03 0.000000000000e+00 0.000000000000e+00
          1.333333333333e-03 0.000000000000e+00 0.000000000000e+00
          1.366666666667e-03 0.000000000000e+00 0.000000000000e+00
          1.400000000000e-03 0.000000000000e+00 0.000000000000e+00
          1.433333333333e-03 0.000000000000e+00 0.000000000000e+00
          1.466666666667e-03 0.000000000000e+00 0.000000000000e+00
          1.500000000000e-03 0.000000000000e+00 0.000000000000e+00
          1.533333333333e-03 0.000000000000e+00 0.000000000000e+00
          1.566666666667e-03 0.000000000000e+00 0.000000000000e+00
          1.600000000000e-03 0.000000000000e+00 0.000000000000e+00
          1.633333333333e-03 0.000000000000e+00 0.000000000000e+00
          1.666666666667e-03 0.000000000000e+00 0.000000000000e+00
          1.700000000000e-03 0.000000000000e+00 0.000000000000e+00
          1.733333333333e-03 0.000000000000e+00 0.000000000000e+00
          1.766666666667e-03 0.000000000000e+00 0.000000000000e+00
          1.800000000000e-03 0.000000000000e+00 0.000000000000e+00
          1.833333333333e-03 0.000000000000e+00 0.000000000000e+00
          1.866666666667e-03 0.000000000000e+00 0.000000000000e+00
          1.900000000000e-03 0.000000000000e+00 0.000000000000e+00
          1.933333333333e-03 0.000000000000e+00 0.000000000000e+00
          1.966666666667e-03 0.000000000000e+00 0.000000000000e+00
          2.000000000000e-03 0.000000000000e+00 0.000000000000e+00
          9.951847265300e-04 9.801714177290e-05 0.000000000000e+00
          1.028357550748e-03 1.012843798320e-04 0.000000000000e+00
          1.061530374965e-03 1.045516178911e-04 0.000000000000e+00
          1.094703199183e-03 1.078188559502e-04 0.000000000000e+00
          1.127876023401e-03 1.110860940093e-04 0.000000000000e+00
          1.161048847618e-03 1.143533320684e-04 0.000000000000e+00
          1.194221671836e-03 1.176205701275e-04 0.000000000000e+00
          1.227394496054e-03 1.208878081866e-04 0.000000000000e+00
          1.260567320271e-03 1.241550462457e-04 0.000000000000e+00
          1.293740144489e-03 1.274222843048e-04 0.000000000000e+00
          1.326912968707e-03 1.306895223639e-04 0.000000000000e+00
          1.360085792924e-03 1.339567604230e-04 0.000000000000e+00
          1.393258617142e-03 1.372239984821e-04 0.000000000000e+00
          1.426431441360e-03 1.404912365412e-04 0.000000000000e+00
          1.459604265577e-03 1.437584746002e-04 0.000000000000e+00
          1.492777089795e-03 1.470257126593e-04 0.000000000000e+00
          1.525949914013e-03 1.502929507184e-04 0.000000000000e+00
          1.559122738230e-03 1.535601887775e-04 0.000000000000e+00
          1.592295562448e-03 1.568274268366e-04 0.000000000000e+00
          1.625468386666e-03 1.600946648957e-04 0.000000000000e+00
          1.658641210883e-03 1.633619029548e-04 0.000000000000e+00
          1.691814035101e-03 1.666291410139e-04 0.000000000000e+00
          1.724986859319e-03 1.698963790730e-04 0.000000000000e+00
          1.758159683536e-03 1.731636171321e-04 0.000000000000e+00
          1.791332507754e-03 1.764308551912e-04 0.000000000000e+00
          1.824505331972e-03 1.796980932503e-04 0.000000000000e+00
          1.857678156189e-03 1.829653313094e-04 0.000000000000e+00
          1.890850980407e-03 1.862325693685e-04 0.000000000000e+00
          1.924023804625e-03 1.894998074276e-04 0.000000000000e+00
          1.957196628842e-03 1.927670454867e-04 0.000000000000e+00
          1.990369453060e-03 1.960342835458e-04 0.000000000000e+00
          9.807852798373e-04 1.950903248610e-04 0.000000000000e+00
          1.013478122499e-03 2.015933356897e-04 0.000000000000e+00
          1.046170965160e-03 2.080963465184e-04 0.000000000000e+00
          1.078863807821e-03 2.145993573471e-04 0.000000000000e+00
          1.111556650482e-03 2.211023681758e-04 0.000000000000e+00
          1.144249493144e-03 2.276053790045e-04 0.000000000000e+00
          1.176942335805e-03 2.341083898332e-04 0.000000000000e+00
          1.209635178466e-03 2.406114006619e-04 0.000000000000e+00
          1.242328021127e-03 2.471144114906e-04 0.000000000000e+00
          1.275020863789e-03 2.536174223193e-04 0.000000000000e+00
          1.307713706450e-03 2.601204331480e-04 0.000000000000e+00
          1.340406549111e-03 2.666234439767e-04 0.000000000000e+00
          1.373099391772e-03 2.731264548054e-04 0.000000000000e+00
          1.405792234434e-03 2.796294656341e-04 0.000000000000e+00
          1.438485077095e-03 2.861324764628e-04 0.000000000000e+00
          1.471177919756e-03 2.926354872915e-04 0.000000000000e+00
          1.503870762417e-03 2.991384981202e-04 0.000000000000e+00
          1.536563605079e-03 3.056415089489e-04 0.000000000000e+00
          1.569256447740e-03 3.121445197776e-04 0.000000000000e+00
          1.601949290401e-03 3.186475306064e-04 0.000000000000e+00
          1.634642133062e-03 3.251505414351e-04 0.000000000000e+00
          1.667334975723e-03 3.316535522638e-04 0.000000000000e+00
          1.700027818385e-03 3.381565630925e-04 0.000000000000e+00
          1.732720661046e-03 3.446595739212e-04 0.000000000000e+00
          1.765413503707e-03 3.511625847499e-04 0.000000000000e+00
          1.798106346368e-03 3.576655955786e-04 0.000000000000e+00
          1.830799189030e-03 3.641686064073e-04 0.000000000000e+00
          1.863492031691e-03 3.706716172360e-04 0.000000000000e+00
          1.896184874352e-03 3.771746280647e-04 0.000000000000e+00
          1.928877717013e-03 3.836776388934e-04 0.000000000000e+00
          1.961570559675e-03 3.901806497221e-04 0.000000000000e+00
          9.569403344692e-04 2.902846814181e-04 0.000000000000e+00
          9.888383456182e-04 2.999608374653e-04 0.000000000000e+00
          1.020736356767e-03 3.096369935126e-04 0.000000000000e+00
          1.052634367916e-03 3.193131495599e-04 0.000000000000e+00
          1.084532379065e-03 3.289893056071e-04 0.000000000000e+00
          1.116430390214e-03 3.386654616544e-04 0.000000000000e+00
          1.148328401363e-03 3.483416177017e-04 0.000000000000e+00
          1.180226412512e-03 3.580177737490e-04 0.000000000000e+00
          1.212124423661e-03 3.676939297962e-04 0.000000000000e+00
          1.244022434810e-03 3.773700858435e-04 0.000000000000e+00
          1.275920445959e-03 3.870462418908e-04 0.000000000000e+00
          1.307818457108e-03 3.967223979380e-04 0.000000000000e+00
          1.339716468257e-03 4.063985539853e-04 0.000000000000e+00
          1.371614479406e-03 4.160747100326e-04 0.000000000000e+00
          1.403512490555e-03 4.257508660798e-04 0.000000000000e+00
          1.435410501704e-03 4.354270221271e-04 0.000000000000e+00
          1.467308512853e-03 4.451031781744e-04 0.000000000000e+00
          1.499206524002e-03 4.547793342216e-04 0.000000000000e+00
          1.531104535151e-03 4.644554902689e-04 0.000000000000e+00
          1.563002546300e-03 4.741316463162e-04 0.000000000000e+00
          1.594900557449e-03 4.838078023634e-04 0.000000000000e+00
          1.626798568598e-03 4.934839584107e-04 0.000000000000e+00
          1.658696579747e-03 5.031601144580e-04 0.000000000000e+00
          1.690594590896e-03 5.128362705053e-04 0.000000000000e+00
          1.722492602045e-03 5.225124265525e-04 0.000000000000e+00
          1.754390613194e-03 5.321885825998e-04 0.000000000000e+00
          1.786288624343e-03 5.418647386471e-04 0.000000000000e+00
          1.818186635491e-03 5.515408946943e-04 0.000000000000e+00
          1.850084646640e-03 5.612170507416e-04 0.000000000000e+00
          1.881982657789e-03 5.708932067889e-04 0.000000000000e+00
          1.913880668938e-03 5.805693628361e-04 0.000000000000e+00
          9.238795302912e-04 3.826834377248e-04 0.000000000000e+00
          9.546755146343e-04 3.954395523156e-04 0.000000000000e+00
          9.854714989773e-04 4.081956669064e-04 0.000000000000e+00
          1.016267483320e-03 4.209517814972e-04 0.000000000000e+00
          1.047063467663e-03 4.337078960881e-04 0.000000000000e+00
          1.077859452006e-03 4.464640106789e-04 0.000000000000e+00
          1.108655436349e-03 4.592201252697e-04 0.000000000000e+00
          1.139451420693e-03 4.719762398606e-04 0.000000000000e+00
          1.170247405036e-03 4.847323544514e-04 0.000000000000e+00
          1.201043389379e-03 4.974884690422e-04 0.000000000000e+00
          1.231839373722e-03 5.102445836330e-04 0.000000000000e+00
          1.262635358065e-03 5.230006982239e-04 0.000000000000e+00
          1.293431342408e-03 5.357568128147e-04 0.000000000000e+00
          1.324227326751e-03 5.485129274055e-04 0.000000000000e+00
          1.355023311094e-03 5.612690419963e-04 0.000000000000e+00
          1.385819295437e-03 5.740251565872e-04 0.000000000000e+00
          1.416615279780e-03 5.867812711780e-04 0.000000000000e+00
          1.447411264123e-03 5.995373857688e-04 0.000000000000e+00
          1.478207248466e-03 6.122935003596e-04 0.000000000000e+00
          1.509003232809e-03 6.250496149505e-04 0.000000000000e+00
          1.539799217152e-03 6.378057295413e-04 0.000000000000e+00
          1.570595201495e-03 6.505618441321e-04 0.000000000000e+00
          1.601391185838e-03 6.633179587229e-04 0.000000000000e+00
          1.632187170181e-03 6.760740733138e-04 0.000000000000e+00
          1.662983154524e-03 6.888301879046e-04 0.000000000000e+00
          1.693779138867e-03 7.015863024954e-04 0.000000000000e+00
          1.724575123210e-03 7.143424170862e-04 0.000000000000e+00
          1.755371107553e-03 7.270985316771e-04 0.000000000000e+00
          1.786167091896e-03 7.398546462679e-04 0.000000000000e+00
          1.816963076239e-03 7.526107608587e-04 0.000000000000e+00
          1.847759060582e-03 7.653668754495e-04 0.000000000000e+00
          8.819212609300e-04 4.713967432213e-04 0.000000000000e+00
          9.113186362943e-04 4.871099679954e-04 0.000000000000e+00
          9.407160116586e-04 5.028231927694e-04 0.000000000000e+00
          9.701133870230e-04 5.185364175435e-04 0.000000000000e+00
          9.995107623873e-04 5.342496423175e-04 0.000000000000e+00
          1.028908137752e-03 5.499628670916e-04 0.000000000000e+00
          1.058305513116e-03 5.656760918656e-04 0.000000000000e+00
          1.087702888480e-03 5.813893166396e-04 0.000000000000e+00
          1.117100263845e-03 5.971025414137e-04 0.000000000000e+00
          1.146497639209e-03 6.128157661877e-04 0.000000000000e+00
          1.175895014573e-03 6.285289909618e-04 0.000000000000e+00
          1.205292389938e-03 6.442422157358e-04 0.000000000000e+00
          1.234689765302e-03 6.599554405099e-04 0.000000000000e+00
          1.264087140666e-03 6.756686652839e-04 0.000000000000e+00
          1.293484516031e-03 6.913818900580e-04 0.000000000000e+00
          1.322881891395e-03 7.070951148320e-04 0.000000000000e+00
          1.352279266759e-03 7.228083396060e-04 0.000000000000e+00
          1.381676642124e-03 7.385215643801e-04 0.000000000000e+00
          1.411074017488e-03 7.542347891541e-04 0.000000000000e+00
          1.440471392852e-03 7.699480139282e-04 0.000000000000e+00
          1.469868768217e-03 7.856612387022e-04 0.000000000000e+00
          1.499266143581e-03 8.013744634763e-04 0.000000000000e+00
          1.528663518945e-03 8.170876882503e-04 0.000000000000e+00
          1.558060894310e-03 8.328009130244e-04 0.000000000000e+00
          1.587458269674e-03 8.485141377984e-04 0.000000000000e+00
          1.616855645038e-03 8.642273625724e-04 0.000000000000e+00
          1.646253020403e-03 8.799405873465e-04 0.000000000000e+00
          1.675650395767e-03 8.956538121205e-04 0.000000000000e+00
          1.705047771131e-03 9.113670368946e-04 0.000000000000e+00
          1.734445146496e-03 9.270802616686e-04 0.000000000000e+00
          1.763842521860e-03 9.427934864427e-04 0.000000000000e+00
          8.314696074680e-04 5.555702402550e-04 0.000000000000e+00
          8.591852610503e-04 5.740892482635e-04 0.000000000000e+00
          8.869009146326e-04 5.926082562720e-04 0.000000000000e+00
          9.146165682148e-04 6.111272642805e-04 0.000000000000e+00
          9.423322217971e-04 6.296462722890e-04 0.000000000000e+00
          9.700478753794e-04 6.481652802975e-04 0.000000000000e+00
          9.977635289616e-04 6.666842883060e-04 0.000000000000e+00
          1.025479182544e-03 6.852032963145e-04 0.000000000000e+00
          1.053194836126e-03 7.037223043230e-04 0.000000000000e+00
          1.080910489708e-03 7.222413123315e-04 0.000000000000e+00
          1.108626143291e-03 7.407603203400e-04 0.000000000000e+00
          1.136341796873e-03 7.592793283485e-04 0.000000000000e+00
          1.164057450455e-03 7.777983363570e-04 0.000000000000e+00
          1.191773104038e-03 7.963173443655e-04 0.000000000000e+00
          1.219488757620e-03 8.148363523740e-04 0.000000000000e+00
          1.247204411202e-03 8.333553603825e-04 0.000000000000e+00
          1.274920064784e-03 8.518743683910e-04 0.000000000000e+00
          1.302635718367e-03 8.703933763995e-04 0.000000000000e+00
          1.330351371949e-03 8.889123844080e-04 0.000000000000e+00
          1.358067025531e-03 9.074313924165e-04 0.000000000000e+00
          1.385782679113e-03 9.259504004250e-04 0.000000000000e+00
          1.413498332696e-03 9.444694084335e-04 0.000000000000e+00
          1.441213986278e-03 9.629884164420e-04 0.000000000000e+00
          1.468929639860e-03 9.815074244505e-04 0.000000000000e+00
          1.496645293442e-03 1.000026432459e-03 0.000000000000e+00
          1.524360947025e-03 1.018545440467e-03 0.000000000000e+00
          1.552076600607e-03 1.037064448476e-03 0.000000000000e+00
          1.579792254189e-03 1.055583456484e-03 0.000000000000e+00
          1.607507907772e-03 1.074102464493e-03 0.000000000000e+00
          1.635223561354e-03 1.092621472501e-03 0.000000000000e+00
          1.662939214936e-03 1.111140480510e-03 0.000000000000e+00
          7.730104469222e-04 6.343932920114e-04 0.000000000000e+00
          7.987774618196e-04 6.555397350785e-04 0.000000000000e+00
          8.245444767170e-04 6.766861781455e-04 0.000000000000e+00
          8.503114916145e-04 6.978326212126e-04 0.000000000000e+00
          8.760785065119e-04 7.189790642796e-04 0.000000000000e+00
          9.018455214093e-04 7.401255073467e-04 0.000000000000e+00
          9.276125363067e-04 7.612719504137e-04 0.000000000000e+00
          9.533795512041e-04 7.824183934808e-04 0.000000000000e+00
          9.791465661015e-04 8.035648365478e-04 0.000000000000e+00
          1.004913580999e-03 8.247112796149e-04 0.000000000000e+00
          1.030680595896e-03 8.458577226819e-04 0.000000000000e+00
          1.056447610794e-03 8.670041657489e-04 0.000000000000e+00
          1.082214625691e-03 8.881506088160e-04 0.000000000000e+00
          1.107981640589e-03 9.092970518830e-04 0.000000000000e+00
          1.133748655486e-03 9.304434949501e-04 0.000000000000e+00
          1.159515670383e-03 9.515899380171e-04 0.000000000000e+00
          1.185282685281e-03 9.727363810842e-04 0.000000000000e+00
          1.211049700178e-03 9.938828241512e-04 0.000000000000e+00
          1.236816715076e-03 1.015029267218e-03 0.000000000000e+00
          1.262583729973e-03 1.036175710285e-03 0.000000000000e+00
          1.288350744870e-03 1.057322153352e-03 0.000000000000e+00
          1.314117759768e-03 1.078468596419e-03 0.000000000000e+00
          1.339884774665e-03 1.099615039486e-03 0.000000000000e+00
          1.365651789563e-03 1.120761482554e-03 0.000000000000e+00
          1.391418804460e-03 1.141907925621e-03 0.000000000000e+00
          1.417185819357e-03 1.163054368688e-03 0.000000000000e+00
          1.442952834255e-03 1.184200811755e-03 0.000000000000e+00
          1.468719849152e-03 1.205347254822e-03 0.000000000000e+00
          1.494486864050e-03 1.226493697889e-03 0.000000000000e+00
          1.520253878947e-03 1.247640140956e-03 0.000000000000e+00
          1.546020893844e-03 1.268786584023e-03 0.000000000000e+00
          7.071067729823e-04 7.071067893908e-04 0.000000000000e+00
          7.306769987484e-04 7.306770157038e-04 0.000000000000e+00
          7.542472245145e-04 7.542472420168e-04 0.000000000000e+00
          7.778174502805e-04 7.778174683299e-04 0.000000000000e+00
          8.013876760466e-04 8.013876946429e-04 0.000000000000e+00
          8.249579018127e-04 8.249579209559e-04 0.000000000000e+00
          8.485281275788e-04 8.485281472689e-04 0.000000000000e+00
          8.720983533448e-04 8.720983735820e-04 0.000000000000e+00
          8.956685791109e-04 8.956685998950e-04 0.000000000000e+00
          9.192388048770e-04 9.192388262080e-04 0.000000000000e+00
          9.428090306431e-04 9.428090525211e-04 0.000000000000e+00
          9.663792564091e-04 9.663792788341e-04 0.000000000000e+00
          9.899494821752e-04 9.899495051471e-04 0.000000000000e+00
          1.013519707941e-03 1.013519731460e-03 0.000000000000e+00
          1.037089933707e-03 1.037089957773e-03 0.000000000000e+00
          1.060660159473e-03 1.060660184086e-03 0.000000000000e+00
          1.084230385240e-03 1.084230410399e-03 0.000000000000e+00
          1.107800611006e-03 1.107800636712e-03 0.000000000000e+00
          1.131370836772e-03 1.131370863025e-03 0.000000000000e+00
          1.154941062538e-03 1.154941089338e-03 0.000000000000e+00
          1.178511288304e-03 1.178511315651e-03 0.000000000000e+00
          1.202081514070e-03 1.202081541964e-03 0.000000000000e+00
          1.225651739836e-03 1.225651768277e-03 0.000000000000e+00
          1.249221965602e-03 1.249221994590e-03 0.000000000000e+00
          1.272792191368e-03 1.272792220903e-03 0.000000000000e+00
          1.296362417134e-03 1.296362447216e-03 0.000000000000e+00
          1.319932642900e-03 1.319932673529e-03 0.000000000000e+00
          1.343502868666e-03 1.343502899843e-03 0.000000000000e+00
          1.367073094432e-03 1.367073126156e-03 0.000000000000e+00
          1.390643320199e-03 1.390643352469e-03 0.000000000000e+00
          1.414213545965e-03 1.414213578782e-03 0.000000000000e+00
          6.343932740736e-04 7.730104616434e-04 0.000000000000e+00
          6.555397165428e-04 7.987774770315e-04 0.000000000000e+00
          6.766861590119e-04 8.245444924196e-04 0.000000000000e+00
          6.978326014810e-04 8.503115078077e-04 0.000000000000e+00
          7.189790439501e-04 8.760785231958e-04 0.000000000000e+00
          7.401254864192e-04 9.018455385840e-04 0.000000000000e+00
          7.612719288884e-04 9.276125539721e-04 0.000000000000e+00
          7.824183713575e-04 9.533795693602e-04 0.000000000000e+00
          8.035648138266e-04 9.791465847483e-04 0.000000000000e+00
          8.247112562957e-04 1.004913600136e-03 0.000000000000e+00
          8.458576987649e-04 1.030680615525e-03 0.000000000000e+00
          8.670041412340e-04 1.056447630913e-03 0.000000000000e+00
          8.881505837031e-04 1.082214646301e-03 0.000000000000e+00
          9.092970261722e-04 1.107981661689e-03 0.000000000000e+00
          9.304434686413e-04 1.133748677077e-03 0.000000000000e+00
          9.515899111105e-04 1.159515692465e-03 0.000000000000e+00
          9.727363535796e-04 1.185282707853e-03 0.000000000000e+00
          9.938827960487e-04 1.211049723241e-03 0.000000000000e+00
          1.015029238518e-03 1.236816738629e-03 0.000000000000e+00
          1.036175680987e-03 1.262583754018e-03 0.000000000000e+00
          1.057322123456e-03 1.288350769406e-03 0.000000000000e+00
          1.078468565925e-03 1.314117784794e-03 0.000000000000e+00
          1.099615008394e-03 1.339884800182e-03 0.000000000000e+00
          1.120761450863e-03 1.365651815570e-03 0.000000000000e+00
          1.141907893333e-03 1.391418830958e-03 0.000000000000e+00
          1.163054335802e-03 1.417185846346e-03 0.000000000000e+00
          1.184200778271e-03 1.442952861734e-03 0.000000000000e+00
          1.205347220740e-03 1.468719877122e-03 0.000000000000e+00
          1.226493663209e-03 1.494486892511e-03 0.000000000000e+00
          1.247640105678e-03 1.520253907899e-03 0.000000000000e+00
          1.268786548147e-03 1.546020923287e-03 0.000000000000e+00
          5.555702209606e-04 8.314696203601e-04 0.000000000000e+00
          5.740892283260e-04 8.591852743721e-04 0.000000000000e+00
          5.926082356914e-04 8.869009283841e-04 0.000000000000e+00
          6.111272430567e-04 9.146165823961e-04 0.000000000000e+00
          6.296462504221e-04 9.423322364081e-04 0.000000000000e+00
          6.481652577874e-04 9.700478904201e-04 0.000000000000e+00
          6.666842651528e-04 9.977635444321e-04 0.000000000000e+00
          6.852032725181e-04 1.025479198444e-03 0.000000000000e+00
          7.037222798835e-04 1.053194852456e-03 0.000000000000e+00
          7.222412872488e-04 1.080910506468e-03 0.000000000000e+00
          7.407602946142e-04 1.108626160480e-03 0.000000000000e+00
          7.592793019795e-04 1.136341814492e-03 0.000000000000e+00
          7.777983093449e-04 1.164057468504e-03 0.000000000000e+00
          7.963173167103e-04 1.191773122516e-03 0.000000000000e+00
          8.148363240756e-04 1.219488776528e-03 0.000000000000e+00
          8.333553314410e-04 1.247204430540e-03 0.000000000000e+00
          8.518743388063e-04 1.274920084552e-03 0.000000000000e+00
          8.703933461717e-04 1.302635738564e-03 0.000000000000e+00
          8.889123535370e-04 1.330351392576e-03 0.000000000000e+00
          9.074313609024e-04 1.358067046588e-03 0.000000000000e+00
          9.259503682677e-04 1.385782700600e-03 0.000000000000e+00
          9.444693756331e-04 1.413498354612e-03 0.000000000000e+00
          9.629883829984e-04 1.441214008624e-03 0.000000000000e+00
          9.815073903638e-04 1.468929662636e-03 0.000000000000e+00
          1.000026397729e-03 1.496645316648e-03 0.000000000000e+00
          1.018545405095e-03 1.524360970660e-03 0.000000000000e+00
          1.037064412460e-03 1.552076624672e-03 0.000000000000e+00
          1.055583419825e-03 1.579792278684e-03 0.000000000000e+00
          1.074102427191e-03 1.607507932696e-03 0.000000000000e+00
          1.092621434556e-03 1.635223586708e-03 0.000000000000e+00
          1.111140441921e-03 1.662939240720e-03 0.000000000000e+00
          4.713967227563e-04 8.819212718688e-04 0.000000000000e+00
          4.871099468481e-04 9.113186475977e-04 0.000000000000e+00
          5.028231709400e-04 9.407160233267e-04 0.000000000000e+00
          5.185363950319e-04 9.701133990557e-04 0.000000000000e+00
          5.342496191238e-04 9.995107747846e-04 0.000000000000e+00
          5.499628432156e-04 1.028908150514e-03 0.000000000000e+00
          5.656760673075e-04 1.058305526243e-03 0.000000000000e+00
          5.813892913994e-04 1.087702901971e-03 0.000000000000e+00
          5.971025154913e-04 1.117100277700e-03 0.000000000000e+00
          6.128157395831e-04 1.146497653429e-03 0.000000000000e+00
          6.285289636750e-04 1.175895029158e-03 0.000000000000e+00
          6.442421877669e-04 1.205292404887e-03 0.000000000000e+00
          6.599554118588e-04 1.234689780616e-03 0.000000000000e+00
          6.756686359506e-04 1.264087156345e-03 0.000000000000e+00
          6.913818600425e-04 1.293484532074e-03 0.000000000000e+00
          7.070950841344e-04 1.322881907803e-03 0.000000000000e+00
          7.228083082263e-04 1.352279283532e-03 0.000000000000e+00
          7.385215323181e-04 1.381676659261e-03 0.000000000000e+00
          7.542347564100e-04 1.411074034990e-03 0.000000000000e+00
          7.699479805019e-04 1.440471410719e-03 0.000000000000e+00
          7.856612045938e-04 1.469868786448e-03 0.000000000000e+00
          8.013744286856e-04 1.499266162177e-03 0.000000000000e+00
          8.170876527775e-04 1.528663537906e-03 0.000000000000e+00
          8.328008768694e-04 1.558060913635e-03 0.000000000000e+00
          8.485141009613e-04 1.587458289364e-03 0.000000000000e+00
          8.642273250531e-04 1.616855665093e-03 0.000000000000e+00
          8.799405491450e-04 1.646253040822e-03 0.000000000000e+00
          8.956537732369e-04 1.675650416551e-03 0.000000000000e+00
          9.113669973288e-04 1.705047792280e-03 0.000000000000e+00
          9.270802214206e-04 1.734445168009e-03 0.000000000000e+00
          9.427934455125e-04 1.763842543738e-03 0.000000000000e+00
          3.826834162860e-04 9.238795391714e-04 0.000000000000e+00
          3.954395301623e-04 9.546755238105e-04 0.000000000000e+00
          4.081956440385e-04 9.854715084495e-04 0.000000000000e+00
          4.209517579147e-04 1.016267493089e-03 0.000000000000e+00
          4.337078717909e-04 1.047063477728e-03 0.000000000000e+00
          4.464639856671e-04 1.077859462367e-03 0.000000000000e+00
          4.592200995433e-04 1.108655447006e-03 0.000000000000e+00
          4.719762134195e-04 1.139451431645e-03 0.000000000000e+00
          4.847323272957e-04 1.170247416284e-03 0.000000000000e+00
          4.974884411719e-04 1.201043400923e-03 0.000000000000e+00
          5.102445550481e-04 1.231839385562e-03 0.000000000000e+00
          5.230006689243e-04 1.262635370201e-03 0.000000000000e+00
          5.357567828005e-04 1.293431354840e-03 0.000000000000e+00
          5.485128966767e-04 1.324227339479e-03 0.000000000000e+00
          5.612690105529e-04 1.355023324118e-03 0.000000000000e+00
          5.740251244291e-04 1.385819308757e-03 0.000000000000e+00
          5.867812383053e-04 1.416615293396e-03 0.000000000000e+00
          5.995373521815e-04 1.447411278035e-03 0.000000000000e+00
          6.122934660577e-04 1.478207262674e-03 0.000000000000e+00
          6.250495799339e-04 1.509003247313e-03 0.000000000000e+00
          6.378056938101e-04 1.539799231952e-03 0.000000000000e+00
          6.505618076863e-04 1.570595216591e-03 0.000000000000e+00
          6.633179215625e-04 1.601391201230e-03 0.000000000000e+00
          6.760740354387e-04 1.632187185870e-03 0.000000000000e+00
          6.888301493149e-04 1.662983170509e-03 0.000000000000e+00
          7.015862631911e-04 1.693779155148e-03 0.000000000000e+00
          7.143423770673e-04 1.724575139787e-03 0.000000000000e+00
          7.270984909435e-04 1.755371124426e-03 0.000000000000e+00
          7.398546048197e-04 1.786167109065e-03 0.000000000000e+00
          7.526107186959e-04 1.816963093704e-03 0.000000000000e+00
          7.653668325721e-04 1.847759078343e-03 0.000000000000e+00
          2.902846592122e-04 9.569403412053e-04 0.000000000000e+00
          2.999608145192e-04 9.888383525788e-04 0.000000000000e+00
          3.096369698263e-04 1.020736363952e-03 0.000000000000e+00
          3.193131251334e-04 1.052634375326e-03 0.000000000000e+00
          3.289892804405e-04 1.084532386699e-03 0.000000000000e+00
          3.386654357475e-04 1.116430398073e-03 0.000000000000e+00
          3.483415910546e-04 1.148328409446e-03 0.000000000000e+00
          3.580177463617e-04 1.180226420820e-03 0.000000000000e+00
          3.676939016687e-04 1.212124432193e-03 0.000000000000e+00
          3.773700569758e-04 1.244022443567e-03 0.000000000000e+00
          3.870462122829e-04 1.275920454940e-03 0.000000000000e+00
          3.967223675900e-04 1.307818466314e-03 0.000000000000e+00
          4.063985228970e-04 1.339716477687e-03 0.000000000000e+00
          4.160746782041e-04 1.371614489061e-03 0.000000000000e+00
          4.257508335112e-04 1.403512500434e-03 0.000000000000e+00
          4.354269888183e-04 1.435410511808e-03 0.000000000000e+00
          4.451031441253e-04 1.467308523181e-03 0.000000000000e+00
          4.547792994324e-04 1.499206534555e-03 0.000000000000e+00
          4.644554547395e-04 1.531104545928e-03 0.000000000000e+00
          4.741316100465e-04 1.563002557302e-03 0.000000000000e+00
          4.838077653536e-04 1.594900568675e-03 0.000000000000e+00
          4.934839206607e-04 1.626798580049e-03 0.000000000000e+00
          5.031600759678e-04 1.658696591422e-03 0.000000000000e+00
          5.128362312748e-04 1.690594602796e-03 0.000000000000e+00
          5.225123865819e-04 1.722492614169e-03 0.000000000000e+00
          5.321885418890e-04 1.754390625543e-03 0.000000000000e+00
          5.418646971960e-04 1.786288636917e-03 0.000000000000e+00
          5.515408525031e-04 1.818186648290e-03 0.000000000000e+00
          5.612170078102e-04 1.850084659664e-03 0.000000000000e+00
          5.708931631173e-04 1.881982671037e-03 0.000000000000e+00
          5.805693184243e-04 1.913880682411e-03 0.000000000000e+00
          1.950903021018e-04 9.807852843644e-04 0.000000000000e+00
          2.015933121719e-04 1.013478127177e-03 0.000000000000e+00
          2.080963222419e-04 1.046170969989e-03 0.000000000000e+00
          2.145993323120e-04 1.078863812801e-03 0.000000000000e+00
          2.211023423820e-04 1.111556655613e-03 0.000000000000e+00
          2.276053524521e-04 1.144249498425e-03 0.000000000000e+00
          2.341083625222e-04 1.176942341237e-03 0.000000000000e+00
          2.406113725922e-04 1.209635184049e-03 0.000000000000e+00
          2.471143826623e-04 1.242328026862e-03 0.000000000000e+00
          2.536173927323e-04 1.275020869674e-03 0.000000000000e+00
          2.601204028024e-04 1.307713712486e-03 0.000000000000e+00
          2.666234128725e-04 1.340406555298e-03 0.000000000000e+00
          2.731264229425e-04 1.373099398110e-03 0.000000000000e+00
          2.796294330126e-04 1.405792240922e-03 0.000000000000e+00
          2.861324430827e-04 1.438485083735e-03 0.000000000000e+00
          2.926354531527e-04 1.471177926547e-03 0.000000000000e+00
          2.991384632228e-04 1.503870769359e-03 0.000000000000e+00
          3.056414732928e-04 1.536563612171e-03 0.000000000000e+00
          3.121444833629e-04 1.569256454983e-03 0.000000000000e+00
          3.186474934330e-04 1.601949297795e-03 0.000000000000e+00
          3.251505035030e-04 1.634642140607e-03 0.000000000000e+00
          3.316535135731e-04 1.667334983420e-03 0.000000000000e+00
          3.381565236431e-04 1.700027826232e-03 0.000000000000e+00
          3.446595337132e-04 1.732720669044e-03 0.000000000000e+00
          3.511625437833e-04 1.765413511856e-03 0.000000000000e+00
          3.576655538533e-04 1.798106354668e-03 0.000000000000e+00
          3.641685639234e-04 1.830799197480e-03 0.000000000000e+00
          3.706715739934e-04 1.863492040292e-03 0.000000000000e+00
          3.771745840635e-04 1.896184883105e-03 0.000000000000e+00
          3.836775941336e-04 1.928877725917e-03 0.000000000000e+00
          3.901806042036e-04 1.961570568729e-03 0.000000000000e+00
          9.801711867953e-05 9.951847288045e-04 0.000000000000e+00
          1.012843559688e-04 1.028357553098e-03 0.000000000000e+00
          1.045515932582e-04 1.061530377392e-03 0.000000000000e+00
          1.078188305475e-04 1.094703201685e-03 0.000000000000e+00
          1.110860678368e-04 1.127876025978e-03 0.000000000000e+00
          1.143533051261e-04 1.161048850272e-03 0.000000000000e+00
          1.176205424154e-04 1.194221674565e-03 0.000000000000e+00
          1.208877797048e-04 1.227394498859e-03 0.000000000000e+00
          1.241550169941e-04 1.260567323152e-03 0.000000000000e+00
          1.274222542834e-04 1.293740147446e-03 0.000000000000e+00
          1.306894915727e-04 1.326912971739e-03 0.000000000000e+00
          1.339567288620e-04 1.360085796033e-03 0.000000000000e+00
          1.372239661513e-04 1.393258620326e-03 0.000000000000e+00
          1.404912034407e-04 1.426431444620e-03 0.000000000000e+00
          1.437584407300e-04 1.459604268913e-03 0.000000000000e+00
          1.470256780193e-04 1.492777093207e-03 0.000000000000e+00
          1.502929153086e-04 1.525949917500e-03 0.000000000000e+00
          1.535601525979e-04 1.559122741794e-03 0.000000000000e+00
          1.568273898872e-04 1.592295566087e-03 0.000000000000e+00
          1.600946271766e-04 1.625468390381e-03 0.000000000000e+00
          1.633618644659e-04 1.658641214674e-03 0.000000000000e+00
          1.666291017552e-04 1.691814038968e-03 0.000000000000e+00
          1.698963390445e-04 1.724986863261e-03 0.000000000000e+00
          1.731635763338e-04 1.758159687555e-03 0.000000000000e+00
          1.764308136232e-04 1.791332511848e-03 0.000000000000e+00
          1.796980509125e-04 1.824505336142e-03 0.000000000000e+00
          1.829652882018e-04 1.857678160435e-03 0.000000000000e+00
          1.862325254911e-04 1.890850984729e-03 0.000000000000e+00
          1.894997627804e-04 1.924023809022e-03 0.000000000000e+00
          1.927670000697e-04 1.957196633316e-03 0.000000000000e+00
          1.960342373591e-04 1.990369457609e-03 0.000000000000e+00
          -2.320510333314e-11 1.000000000000e-03 0.000000000000e+00
          -2.397860677758e-11 1.033333333333e-03 0.000000000000e+00
          -2.475211022202e-11 1.066666666667e-03 0.000000000000e+00
          -2.552561366646e-11 1.100000000000e-03 0.000000000000e+00
          -2.629911711090e-11 1.133333333333e-03 0.000000000000e+00
          -2.707262055534e-11 1.166666666667e-03 0.000000000000e+00
          -2.784612399977e-11 1.200000000000e-03 0.000000000000e+00
          -2.861962744421e-11 1.233333333333e-03 0.000000000000e+00
          -2.939313088865e-11 1.266666666667e-03 0.000000000000e+00
          -3.016663433309e-11 1.300000000000e-03 0.000000000000e+00
          -3.094013777753e-11 1.333333333333e-03 0.000000000000e+00
          -3.171364122196e-11 1.366666666667e-03 0.000000000000e+00
          -3.248714466640e-11 1.400000000000e-03 0.000000000000e+00
          -3.326064811084e-11 1.433333333333e-03 0.000000000000e+00
          -3.403415155528e-11 1.466666666667e-03 0.000000000000e+00
          -3.480765499972e-11 1.500000000000e-03 0.000000000000e+00
          -3.558115844415e-11 1.533333333333e-03 0.000000000000e+00
          -3.635466188859e-11 1.566666666667e-03 0.000000000000e+00
          -3.712816533303e-11 1.600000000000e-03 0.000000000000e+00
          -3.790166877747e-11 1.633333333333e-03 0.000000000000e+00
          -3.867517222191e-11 1.666666666667e-03 0.000000000000e+00
          -3.944867566635e-11 1.700000000000e-03 0.000000000000e+00
          -4.022217911078e-11 1.733333333333e-03 0.000000000000e+00
          -4.099568255522e-11 1.766666666667e-03 0.000000000000e+00
          -4.176918599966e-11 1.800000000000e-03 0.000000000000e+00
          -4.254268944410e-11 1.833333333333e-03 0.000000000000e+00
          -4.331619288854e-11 1.866666666667e-03 0.000000000000e+00
          -4.408969633297e-11 1.900000000000e-03 0.000000000000e+00
          -4.486319977741e-11 1.933333333333e-03 0.000000000000e+00
          -4.563670322185e-11 1.966666666667e-03 0.000000000000e+00
          -4.641020666629e-11 2.000000000000e-03 0.000000000000e+00
        </DataArray>
      </Points>
      <Cells>
        <DataArray type="Int64" Name="connectivity" format="ascii">
          31 0 1 32 
          32 1 2 33 
          33 2 3 34 
          34 3 4 35 
          35 4 5 36 
          36 5 6 37 
          37 6 7 38 
          38 7 8 39 
          39 8 9 40 
          40 9 10 41 
          41 10 11 42 
          42 11 12 43 
          43 12 13 44 
          44 13 14 45 
          45 14 15 46 
          46 15 16 47 
          47 16 17 48 
          48 17 18 49 
          49 18 19 50 
          50 19 20 51 
          51 20 21 52 
          52 21 22 53 
          53 22 23 54 
          54 23 24 55 
          55 24 25 56 
          56 25 26 57 
          57 26 27 58 
          58 27 28 59 
          59 28 29 60 
          60 29 30 61 
          62 31 32 63 
          63 32 33 64 
          64 33 34 65 
          65 34 35 66 
          66 35 36 67 
          67 36 37 68 
          68 37 38 69 
          69 38 39 70 
          70 39 40 71 
          71 40 41 72 
          72 41 42 73 
          73 42 43 74 
          74 43 44 75 
          75 44 45 76 
          76 45 46 77 
          77 46 47 78 
          78 47 48 79 
          79 48 49 80 
          80 49 50 81 
          81 50 51 82 
          82 51 52 83 
          83 52 53 84 
          84 53 54 85 
          85 54 55 86 
          86 55 56 87 
          87 56 57 88 
          88 57 58 89 
          89 58 59 90 
          90 59 60 91 
          91 60 61 92 
          93 62 63 94 
          94 63 64 95 
          95 64 65 96 
          96 65 66 97 
          97 66 67 98 
          98 67 68 99 
          99 68 69 100 
          100 69 70 101 
          101 70 71 102 
          102 71 72 103 
          103 72 73 104 
          104 73 74 105 
          105 74 75 106 
          106 75 76 107 
          107 76 77 108 
          108 77 78 109 
          109 78 79 110 
          110 79 80 111 
          111 80 81 112 
          112 81 82 113 
          113 82 83 114 
          114 83 84 115 
          115 84 85 116 
          116 85 86 117 
          117 86 87 118 
          118 87 88 119 
          119 88 89 120 
          120 89 90 121 
          121 90 91 122 
          122 91 92 123 
          124 93 94 125 
          125 94 95 126 
          126 95 96 127 
          127 96 97 128 
          128 97 98 129 
          129 98 99 130 
          130 99 100 131 
          131 100 101 132 
          132 101 102 133 
          133 102 103 134 
          134 103 104 135 
          135 104 105 136 
          136 105 106 137 
          137 106 107 138 
          138 107 108 139 
          139 108 109 140 
          140 109 110 141 
          141 110 111 142 
          142 111 112 143 
          143 112 113 144 
          144 113 114 145 
          145 114 115 146 
          146 115 116 147 
          147 116 117 148 
          148 117 118 149 
          149 118 119 150 
          150 119 120 151 
          151 120 121 152 
          152 121 122 153 
          153 122 123 154 
          155 124 125 156 
          156 125 126 157 
          157 126 127 158 
          158 127 128 159 
          159 128 129 160 
          160 129 130 161 
          161 130 131 162 
          162 131 132 163 
          163 132 133 164 
          164 133 134 165 
          165 134 135 166 
          166 135 136 167 
          167 136 137 168 
          168 137 138 169 
          169 138 139 170 
          170 139 140 171 
          171 140 141 172 
          172 141 142 173 
          173 142 143 174 
          174 143 144 175 
          175 144 145 176 
          176 145 146 177 
          177 146 147 178 
          178 147 148 179 
          179 148 149 180 
          180 149 150 181 
          181 150 151 182 
          182 151 152 183 
          183 152 153 184 
          184 153 154 185 
          186 155 156 187 
          187 156 157 188 
          188 157 158 189 
          189 158 159 190 
          190 159 160 191 
          191 160 161 192 
          192 161 162 193 
          193 162 163 194 
          194 163 164 195 
          195 164 165 196 
          196 165 166 197 
          197 166 167 198 
          198 167 168 199 
          199 168 169 200 
          200 169 170 201 
          201 170 171 202 
          202 171 172 203 
          203 172 173 204 
          204 173 174 205 
          205 174 175 206 
          206 175 176 207 
          207 176 177 208 
          208 177 178 209 
          209 178 179 210 
          210 179 180 211 
          211 180 181 212 
          212 181 182 213 
          213 182 183 214 
          214 183 184 215 
          215 184 185 216 
          217 186 187 218 
          218 187 188 219 
          219 188 189 220 
          220 189 190 221 
          221 190 191 222 
          222 191 192 223 
          223 192 193 224 
          224 193 194 225 
          225 194 195 226 
          226 195 196 227 
          227 196 197 228 
          228 197 198 229 
          229 198 199 230 
          230 199 200 231 
          231 200 201 232 
          232 201 202 233 
          233 202 203 234 
          234 203 204 235 
          235 204 205 236 
          236 205 206 237 
          237 206 207 238 
          238 207 208 239 
          239 208 209 240 
          240 209 210 241 
          241 210 211 242 
          242 211 212 243 
          243 212 213 244 
          244 213 214 245 
          245 214 215 246 
          246 215 216 247 
          248 217 218 249 
          249 218 219 250 
          250 219 220 251 
          251 220 221 252 
          252 221 222 253 
          253 222 223 254 
          254 223 224 255 
          255 224 225 256 
          256 225 226 257 
          257 226 227 258 
          258 227 228 259 
          259 228 229 260 
          260 229 230 261 
          261 230 231 262 
          262 231 232 263 
          263 232 233 264 
          264 233 234 265 
          265 234 235 266 
          266 235 236 267 
          267 236 237 268 
          268 237 238 269 
          269 238 239 270 
          270 239 240 271 
          271 240 241 272 
          272 241 242 273 
          273 242 243 274 
          274 243 244 275 
          275 244 245 276 
          276 245 246 277 
          277 246 247 278 
          279 248 249 280 
          280 249 250 281 
          281 250 251 282 
          282 251 252 283 
          283 252 253 284 
          284 253 254 285 
          285 254 255 286 
          286 255 256 287 
          287 256 257 288 
          288 257 258 289 
          289 258 259 290 
          290 259 260 291 
          291 260 261 292 
          292 261 262 293 
          293 262 263 294 
          294 263 264 295 
          295 264 265 296 
          296 265 266 297 
          297 266 267 298 
          298 267 268 299 
          299 268 269 300 
          300 269 270 301 
          301 270 271 302 
          302 271 272 303 
          303 272 273 304 
          304 273 274 305 
          305 274 275 306 
          306 275 276 307 
          307 276 277 308 
          308 277 278 309 
          310 279 280 311 
          311 280 281 312 
          312 281 282 313 
          313 282 283 314 
          314 283 284 315 
          315 284 285 316 
          316 285 286 317 
          317 286 287 318 
          318 287 288 319 
          319 288 289 320 
          320 289 290 321 
          321 290 291 322 
          322 291 292 323 
          323 292 293 324 
          324 293 294 325 
          325 294 295 326 
          326 295 296 327 
          327 296 297 328 
          328 297 298 329 
          329 298 299 330 
          330 299 300 331 
          331 300 301 332 
          332 301 302 333 
          333 302 303 334 
          334 303 304 335 
          335 304 305 336 
          336 305 306 337 
          337 306 307 338 
          338 307 308 339 
          339 308 309 340 
          341 310 311 342 
          342 311 312 343 
          343 312 313 344 
          344 313 314 345 
          345 314 315 346 
          346 315 316 347 
          347 316 317 348 
          348 317 318 349 
          349 318 319 350 
          350 319 320 351 
          351 320 321 352 
          352 321 322 353 
          353 322 323 354 
          354 323 324 355 
          355 324 325 356 
          356 325 326 357 
          357 326 327 358 
          358 327 328 359 
          359 328 329 360 
          360 329 330 361 
          361 330 331 362 
          362 331 332 363 
          363 332 333 364 
          364 333 334 365 
          365 334 335 366 
          366 335 336 367 
          367 336 337 368 
          368 337 338 369 
          369 338 339 370 
          370 339 340 371 
          372 341 342 373 
          373 342 343 374 
          374 343 344 375 
          375 344 345 376 
          376 345 346 377 
          377 346 347 378 
          378 347 348 379 
          379 348 349 380 
          380 349 350 381 
          381 350 351 382 
          382 351 352 383 
          383 352 353 384 
          384 353 354 385 
          385 354 355 386 
          386 355 356 387 
          387 356 357 388 
          388 357 358 389 
          389 358 359 390 
          390 359 360 391 
          391 360 361 392 
          392 361 362 393 
          393 362 363 394 
          394 363 364 395 
          395 364 365 396 
          396 365 366 397 
          397 366 367 398 
          398 367 368 399 
          399 368 369 400 
          400 369 370 401 
          401 370 371 402 
          403 372 373 404 
          404 373 374 405 
          405 374 375 406 
          406 375 376 407 
          407 376 377 408 
          408 377 378 409 
          409 378 379 410 
          410 379 380 411 
          411 380 381 412 
          412 381 382 413 
          413 382 383 414 
          414 383 384 415 
          415 384 385 416 
          416 385 386 417 
          417 386 387 418 
          418 387 388 419 
          419 388 389 420 
          420 389 390 421 
          421 390 391 422 
          422 391 392 423 
          423 392 393 424 
          424 393 394 425 
          425 394 395 426 
          426 395 396 427 
          427 396 397 428 
          428 397 398 429 
          429 398 399 430 
          430 399 400 431 
          431 400 401 432 
          432 401 402 433 
          434 403 404 435 
          435 404 405 436 
          436 405 406 437 
          437 406 407 438 
          438 407 408 439 
          439 408 409 440 
          440 409 410 441 
          441 410 411 442 
          442 411 412 443 
          443 412 413 444 
          444 413 414 445 
          445 414 415 446 
          446 415 416 447 
          447 416 417 448 
          448 417 418 449 
          449 418 419 450 
          450 419 420 451 
          451 420 421 452 
          452 421 422 453 
          453 422 423 454 
          454 423 424 455 
          455 424 425 456 
          456 425 426 457 
          457 426 427 458 
          458 427 428 459 
          459 428 429 460 
          460 429 430 461 
          461 430 431 462 
          462 431 432 463 
          463 432 433 464 
          465 434 435 466 
          466 435 436 467 
          467 436 437 468 
          468 437 438 469 
          469 438 439 470 
          470 439 440 471 
          471 440 441 472 
          472 441 442 473 
          473 442 443 474 
          474 443 444 475 
          475 444 445 476 
          476 445 446 477 
          477 446 447 478 
          478 447 448 479 
          479 448 449 480 
          480 449 450 481 
          481 450 451 482 
          482 451 452 483 
          483 452 453 484 
          484 453 454 485 
          485 454 455 486 
          486 455 456 487 
          487 456 457 488 
          488 457 458 489 
          489 458 459 490 
          490 459 460 491 
          491 460 461 492 
          492 461 462 493 
          493 462 463 494 
          494 463 464 495 
          496 465 466 497 
          497 466 467 498 
          498 467 468 499 
          499 468 469 500 
          500 469 470 501 
          501 470 471 502 
          502 471 472 503 
          503 472 473 504 
          504 473 474 505 
          505 474 475 506 
          506 475 476 507 
          507 476 477 508 
          508 477 478 509 
          509 478 479 510 
          510 479 480 511 
          511 480 481 512 
          512 481 482 513 
          513 482 483 514 
          514 483 484 515 
          515 484 485 516 
          516 485 486 517 
          517 486 487 518 
          518 487 488 519 
          519 488 489 520 
          520 489 490 521 
          521 490 491 522 
          522 491 492 523 
          523 492 493 524 
          524 493 494 525 
          525 494 495 526 
        </DataArray>
        <DataArray type="Int64" Name="offsets" format="ascii">
          4 8 12 16 20 24 28 32 36 40 44 48 52 56 60 64 68 72 76 80 84 88 92 96 100 104 108 112 116 120 124 128 132 136 140 144 148 152 156 160 164 168 172 176 180 184 188 192 196 200 204 208 212 216 220 224 228 232 236 240 244 248 252 256 260 264 268 272 276 280 284 288 292 296 300 304 308 312 316 320 324 328 332 336 340 344 348 352 356 360 364 368 372 376 380 384 388 392 396 400 404 408 412 416 420 424 428 432 436 440 444 448 452 456 460 464 468 472 476 480 484 488 492 496 500 504 508 512 516 520 524 528 532 536 540 544 548 552 556 560 564 568 572 576 580 584 588 592 596 600 604 608 612 616 620 624 628 632 636 640 644 648 652 656 660 664 668 672 676 680 684 688 692 696 700 704 708 712 716 720 724 728 732 736 740 744 748 752 756 760 764 768 772 776 780 784 788 792 796 800 804 808 812 816 820 824 828 832 836 840 844 848 852 856 860 864 868 872 876 880 884 888 892 896 900 904 908 912 916 920 924 928 932 936 940 944 948 952 956 960 964 968 972 976 980 984 988 992 996 1000 1004 1008 1012 1016 1020 1024 1028 1032 1036 1040 1044 1048 1052 1056 1060 1064 1068 1072 1076 1080 1084 1088 1092 1096 1100 1104 1108 1112 1116 1120 1124 1128 1132 1136 1140 1144 1148 1152 1156 1160 1164 1168 1172 1176 1180 1184 1188 1192 1196 1200 1204 1208 1212 1216 1220 1224 1228 1232 1236 1240 1244 1248 1252 1256 1260 1264 1268 1272 1276 1280 1284 1288 1292 1296 1300 1304 1308 1312 1316 1320 1324 1328 1332 1336 1340 1344 1348 1352 1356 1360 1364 1368 1372 1376 1380 1384 1388 1392 1396 1400 1404 1408 1412 1416 1420 1424 1428 1432 1436 1440 1444 1448 1452 1456 1460 1464 1468 1472 1476 1480 1484 1488 1492 1496 1500 1504 1508 1512 1516 1520 1524 1528 1532 1536 1540 1544 1548 1552 1556 1560 1564 1568 1572 1576 1580 1584 1588 1592 1596 1600 1604 1608 1612 1616 1620 1624 1628 1632 1636 1640 1644 1648 1652 1656 1660 1664 1668 1672 1676 1680 1684 1688 1692 1696 1700 1704 1708 1712 1716 1720 1724 1728 1732 1736 1740 1744 1748 1752 1756 1760 1764 1768 1772 1776 1780 1784 1788 1792 1796 1800 1804 1808 1812 1816 1820 1824 1828 1832 1836 1840 1844 1848 1852 1856 1860 1864 1868 1872 1876 1880 1884 1888 1892 1896 1900 1904 1908 1912 1916 1920 
        </DataArray>
        <DataArray type="UInt8" Name="types" format="ascii">
          9 9 9 9 9 9 9 9 9 9 9 9 9 9 9 9 9 9 9 9 9 9 9 9 9 9 9 9 9 9 9 9 9 9 9 9 9 9 9 9 9 9 9 9 9 9 9 9 9 9 9 9 9 9 9 9 9 9 9 9 9 9 9 9 9 9 9 9 9 9 9 9 9 9 9 9 9 9 9 9 9 9 9 9 9 9 9 9 9 9 9 9 9 9 9 9 9 9 9 9 9 9 9 9 9 9 9 9 9 9 9 9 9 9 9 9 9 9 9 9 9 9 9 9 9 9 9 9 9 9 9 9 9 9 9 9 9 9 9 9 9 9 9 9 9 9 9 9 9 9 9 9 9 9 9 9 9 9 9 9 9 9 9 9 9 9 9 9 9 9 9 9 9 9 9 9 9 9 9 9 9 9 9 9 9 9 9 9 9 9 9 9 9 9 9 9 9 9 9 9 9 9 9 9 9 9 9 9 9 9 9 9 9 9 9 9 9 9 9 9 9 9 9 9 9 9 9 9 9 9 9 9 9 9 9 9 9 9 9 9 9 9 9 9 9 9 9 9 9 9 9 9 9 9 9 9 9 9 9 9 9 9 9 9 9 9 9 9 9 9 9 9 9 9 9 9 9 9 9 9 9 9 9 9 9 9 9 9 9 9 9 9 9 9 9 9 9 9 9 9 9 9 9 9 9 9 9 9 9 9 9 9 9 9 9 9 9 9 9 9 9 9 9 9 9 9 9 9 9 9 9 9 9 9 9 9 9 9 9 9 9 9 9 9 9 9 9 9 9 9 9 9 9 9 9 9 9 9 9 9 9 9 9 9 9 9 9 9 9 9 9 9 9 9 9 9 9 9 9 9 9 9 9 9 9 9 9 9 9 9 9 9 9 9 9 9 9 9 9 9 9 9 9 9 9 9 9 9 9 9 9 9 9 9 9 9 9 9 9 9 9 9 9 9 9 9 9 9 9 9 9 9 9 9 9 9 9 9 9 9 9 9 9 9 9 9 9 9 9 9 9 9 9 9 9 9 9 9 9 9 9 9 9 9 9 9 9 9 9 9 9 9 9 9 9 9 9 9 9 9 
        </DataArray>
      </Cells>
      <PointData Scalars="DISPLACEMENT_X1">
        <DataArray type="Float64" Name="STRESS_1" format="ascii">
          8.703977351610e+07 8.261455763484e+07 7.859545506191e+07 7.493557150897e+07 7.159365729957e+07 6.853399835248e+07 6.572570327118e+07 6.314197995894e+07 6.075950926605e+07 5.855792094113e+07 5.651935789193e+07 5.462811330201e+07 5.287032731194e+07 5.123373242668e+07 4.970743891120e+07 4.828175321542e+07 4.694802368751e+07 4.569850906048e+07 4.452626582906e+07 4.342505160570e+07 4.238924176920e+07 4.141375751567e+07 4.049400332619e+07 3.962581258491e+07 3.880539979751e+07 3.802931839642e+07 3.729442262582e+07 3.659783214437e+07 3.593689691518e+07 3.530915907313e+07 3.471227550646e+07 8.703977027354e+07 8.261455688972e+07 7.859545463318e+07 7.493557108595e+07 7.159365682877e+07 6.853399785438e+07 6.572570276567e+07 6.314197944449e+07 6.075950872061e+07 5.855792034794e+07 5.651935725221e+07 5.462811263176e+07 5.287032661796e+07 5.123373171169e+07 4.970743818044e+07 4.828175249084e+07 4.694802299129e+07 4.569850840103e+07 4.452626518361e+07 4.342505094376e+07 4.238924106711e+07 4.141375676486e+07 4.049400251828e+07 3.962581171923e+07 3.880539887353e+07 3.802931742764e+07 3.729442162565e+07 3.659783113623e+07 3.593689592418e+07 3.530915812744e+07 3.471227459720e+07 8.703977503224e+07 8.261456060185e+07 7.859545766628e+07 7.493557363558e+07 7.159365900829e+07 6.853399974048e+07 6.572570439291e+07 6.314198086304e+07 6.075950995531e+07 5.855792141641e+07 5.651935814211e+07 5.462811333513e+07 5.287032714226e+07 5.123373207649e+07 4.970743840698e+07 4.828175257897e+07 4.694802294781e+07 4.569850822050e+07 4.452626488409e+07 4.342505051625e+07 4.238924051798e+07 4.141375607414e+07 4.049400169759e+07 3.962581076000e+07 3.880539778507e+07 3.802931618942e+07 3.729442023131e+07 3.659782956012e+07 3.593689416420e+07 3.530915618933e+07 3.471227246696e+07 8.703978158433e+07 8.261456571370e+07 7.859546179557e+07 7.493557701944e+07 7.159366184832e+07 6.853400216545e+07 6.572570651106e+07 6.314198271475e+07 6.075951158488e+07 5.855792284036e+07 5.651935939328e+07 5.462811441948e+07 5.287032806533e+07 5.123373282202e+07 4.970743896912e+07 4.828175294801e+07 4.694802311692e+07 4.569850818210e+07 4.452626464585e+07 4.342505009178e+07 4.238923992235e+07 4.141375530111e+07 4.049400074368e+07 3.962580959919e+07 3.880539640614e+07 3.802931455844e+07 3.729441833891e+07 3.659782738113e+07 3.593689170315e+07 3.530915342990e+07 3.471226935088e+07 8.703978793840e+07 8.261457082896e+07 7.859546602171e+07 7.493558055928e+07 7.159366486756e+07 6.853400476995e+07 6.572570878800e+07 6.314198471120e+07 6.075951333790e+07 5.855792435607e+07 5.651936068736e+07 5.462811550079e+07 5.287032894806e+07 5.123373350599e+07 4.970743945627e+07 4.828175324755e+07 4.694802324826e+07 4.569850816578e+07 4.452626447619e+07 4.342504976095e+07 4.238923940120e+07 4.141375459435e+07 4.049399981673e+07 3.962580845635e+07 3.880539501376e+07 3.802931293165e+07 3.729441645036e+07 3.659782523523e+07 3.593688924914e+07 3.530915065139e+07 3.471226617667e+07 8.703979301329e+07 8.261457489394e+07 7.859546935813e+07 7.493558336229e+07 7.159366723447e+07 6.853400681181e+07 6.572571053561e+07 6.314198623509e+07 6.075951465277e+07 5.855792551919e+07 5.651936169538e+07 5.462811637226e+07 5.287032966897e+07 5.123373410194e+07 4.970743993180e+07 4.828175361418e+07 4.694802350008e+07 4.569850830468e+07 4.452626450890e+07 4.342504968172e+07 4.238923920084e+07 4.141375423615e+07 4.049399929841e+07 3.962580775527e+07 3.880539413424e+07 3.802931183912e+07 3.729441512634e+07 3.659782362993e+07 3.593688733309e+07 3.530914838785e+07 3.471226353677e+07 8.703979565225e+07 8.261457697170e+07 7.859547103244e+07 7.493558470473e+07 7.159366833517e+07 6.853400771321e+07 6.572571131169e+07 6.314198690322e+07 6.075951523879e+07 5.855792601015e+07 5.651936210820e+07 5.462811671612e+07 5.287032995975e+07 5.123373432853e+07 4.970744008727e+07 4.828175370896e+07 4.694802355168e+07 4.569850832995e+07 4.452626450652e+07 4.342504965791e+07 4.238923915882e+07 4.141375419766e+07 4.049399925021e+07 3.962580768008e+07 3.880539398115e+07 3.802931157511e+07 3.729441470870e+07 3.659782303956e+07 3.593688654680e+07 3.530914739634e+07 3.471226228407e+07 8.703979522699e+07 8.261457654364e+07 7.859547057586e+07 7.493558424324e+07 7.159366788752e+07 6.853400729758e+07 6.572571092247e+07 6.314198653860e+07 6.075951490825e+07 5.855792571547e+07 5.651936184911e+07 5.462811647139e+07 5.287032973433e+07 5.123373414154e+07 4.970743997918e+07 4.828175368144e+07 4.694802360102e+07 4.569850843908e+07 4.452626468531e+07 4.342504991330e+07 4.238923949747e+07 4.141375459364e+07 4.049399969453e+07 3.962580816072e+07 3.880539451309e+07 3.802931215093e+07 3.729441532076e+07 3.659782365738e+07 3.593688714993e+07 3.530914795839e+07 3.471226282340e+07 8.703979187804e+07 8.261457352140e+07 7.859546785924e+07 7.493558179743e+07 7.159366566880e+07 6.853400527856e+07 6.572570909667e+07 6.314198490901e+07 6.075951345768e+07 5.855792444076e+07 5.651936074232e+07 5.462811555628e+07 5.287032901680e+07 5.123373361570e+07 4.970743961755e+07 4.828175347657e+07 4.694802355738e+07 4.569850856911e+07 4.452626498596e+07 4.342505038059e+07 4.238924013462e+07 4.141375541677e+07 4.049400070546e+07 3.962580934933e+07 3.880539585071e+07 3.802931362530e+07 3.729441693113e+07 3.659782541519e+07 3.593688906043e+07 3.530915002093e+07 3.471226505192e+07 8.703978545121e+07 8.261456793274e+07 7.859546299887e+07 7.493557756257e+07 7.159366197277e+07 6.853400204018e+07 6.572570624991e+07 6.314198240756e+07 6.075951128743e+07 5.855792258703e+07 5.651935919490e+07 5.462811429095e+07 5.287032801676e+07 5.123373287169e+07 4.970743912389e+07 4.828175323258e+07 4.694802355776e+07 4.569850881441e+07 4.452626547558e+07 4.342505111208e+07 4.238924109207e+07 4.141375659650e+07 4.049400211345e+07 3.962581101096e+07 3.880539779112e+07 3.802931586208e+07 3.729441946789e+07 3.659782825582e+07 3.593689220679e+07 3.530915347628e+07 3.471226890416e+07 8.703977597925e+07 8.261456017003e+07 7.859545644218e+07 7.493557196687e+07 7.159365716608e+07 6.853399790761e+07 6.572570269410e+07 6.314197934806e+07 6.075950865868e+07 5.855792035486e+07 5.651935734392e+07 5.462811280356e+07 5.287032687570e+07 5.123373205959e+07 4.970743863966e+07 4.828175307245e+07 4.694802371784e+07 4.569850928282e+07 4.452626625079e+07 4.342505218956e+07 4.238924247217e+07 4.141375826268e+07 4.049400406403e+07 3.962581325224e+07 3.880540034167e+07 3.802931873062e+07 3.729442266319e+07 3.659783177925e+07 3.593689607676e+07 3.530915770666e+07 3.471227349938e+07 8.703976554072e+07 8.261455140361e+07 7.859544901348e+07 7.493556564910e+07 7.159365177566e+07 6.853399329326e+07 6.572569875036e+07 6.314197600212e+07 6.075950585015e+07 5.855791802966e+07 5.651935546124e+07 5.462811135136e+07 5.287032584448e+07 5.123373143101e+07 4.970743837536e+07 4.828175313986e+07 4.694802409835e+07 4.569850997082e+07 4.452626722906e+07 4.342505344411e+07 4.238924399909e+07 4.141376007807e+07 4.049400617991e+07 3.962581566830e+07 3.880540305193e+07 3.802932175096e+07 3.729442602869e+07 3.659783554468e+07 3.593690029277e+07 3.530916242468e+07 3.471227879285e+07 8.703975522738e+07 8.261454265454e+07 7.859544153291e+07 7.493555923967e+07 7.159364628558e+07 6.853398860408e+07 6.572569476249e+07 6.314197263373e+07 6.075950305177e+07 5.855791576795e+07 5.651935369912e+07 5.462811003733e+07 5.287032493225e+07 5.123373089471e+07 4.970743820792e+07 4.828175332981e+07 4.694802462025e+07 4.569851079162e+07 4.452626832941e+07 4.342505481927e+07 4.238924564434e+07 4.141376198384e+07 4.049400834346e+07 3.962581810844e+07 3.880540580399e+07 3.802932483827e+07 3.729442945813e+07 3.659783930683e+07 3.593690437444e+07 3.530916680831e+07 3.471228343863e+07 8.703974589920e+07 8.261453476795e+07 7.859543479262e+07 7.493555347180e+07 7.159364135957e+07 6.853398442396e+07 6.572569125366e+07 6.314196973867e+07 6.075950071172e+07 5.855791392646e+07 5.651935230744e+07 5.462810905577e+07 5.287032432039e+07 5.123373061165e+07 4.970743821477e+07 4.828175360294e+07 4.694802514843e+07 4.569851156562e+07 4.452626933552e+07 4.342505604488e+07 4.238924708453e+07 4.141376364754e+07 4.049401023463e+07 3.962582022364e+07 3.880540813637e+07 3.802932740371e+07 3.729443229132e+07 3.659784245231e+07 3.593690787116e+07 3.530917069720e+07 3.471228776556e+07 8.703973874515e+07 8.261452847626e+07 7.859542934242e+07 7.493554881349e+07 7.159363741971e+07 6.853398110773e+07 6.572568847314e+07 6.314196741957e+07 6.075949880430e+07 5.855791239345e+07 5.651935111181e+07 5.462810816740e+07 5.287032371924e+07 5.123373028601e+07 4.970743815593e+07 4.828175378812e+07 4.694802554701e+07 4.569851214903e+07 4.452627009380e+07 4.342505697704e+07 4.238924820138e+07 4.141376495441e+07 4.049401174305e+07 3.962582193916e+07 3.880541006446e+07 3.802932954011e+07 3.729443463170e+07 3.659784498491e+07 3.593691058214e+07 3.530917356347e+07 3.471229070097e+07 8.703973366983e+07 8.261452355579e+07 7.859542528605e+07 7.493554554197e+07 7.159363476635e+07 6.853397894067e+07 6.572568669681e+07 6.314196596178e+07 6.075949761424e+07 5.855791143844e+07 5.651935037985e+07 5.462810763940e+07 5.287032337520e+07 5.123373010421e+07 4.970743812861e+07 4.828175391273e+07 4.694802581451e+07 4.569851253841e+07 4.452627058119e+07 4.342505754882e+07 4.238924885650e+07 4.141376570015e+07 4.049401258855e+07 3.962582289871e+07 3.880541116516e+07 3.802933082001e+07 3.729443613347e+07 3.659784674233e+07 3.593691260635e+07 3.530917581468e+07 3.471229309629e+07 8.703973031147e+07 8.261452255331e+07 7.859542519600e+07 7.493554582785e+07 7.159363523048e+07 6.853397949601e+07 6.572568730871e+07 6.314196662868e+07 6.075949833945e+07 5.855791220658e+07 5.651935116065e+07 5.462810840505e+07 5.287032411152e+07 5.123373080807e+07 4.970743879298e+07 4.828175453397e+07 4.694802640177e+07 4.569851311833e+07 4.452627118094e+07 4.342505819087e+07 4.238924955532e+07 4.141376647078e+07 4.049401344134e+07 3.962582384397e+07 3.880541220574e+07 3.802933196143e+07 3.729443738068e+07 3.659784812655e+07 3.593691420606e+07 3.530917782415e+07 3.471229595293e+07 
        </DataArray>
        <DataArray type="Float64" Name="STRESS_2" format="ascii">
          1.046700280389e+07 1.046310682468e+07 1.045680452512e+07 1.045068570095e+07 1.044504129596e+07 1.043989059012e+07 1.043519420500e+07 1.043090427272e+07 1.042697600110e+07 1.042336980354e+07 1.042005116347e+07 1.041699001560e+07 1.041416011781e+07 1.041153850597e+07 1.040910501955e+07 1.040684191434e+07 1.040473349257e+07 1.040276583905e+07 1.040092655282e+07 1.039920456936e+07 1.039758992065e+07 1.039607355550e+07 1.039464702459e+07 1.039330213925e+07 1.039203027544e+07 1.039082119487e+07 1.038966065613e+07 1.038852596031e+07 1.038737732790e+07 1.038614164450e+07 1.038468641894e+07 1.046700325667e+07 1.046310724256e+07 1.045680488113e+07 1.045068602432e+07 1.044504159715e+07 1.043989085807e+07 1.043519442119e+07 1.043090444397e+07 1.042697615073e+07 1.042336994251e+07 1.042005127753e+07 1.041699008608e+07 1.041416013664e+07 1.041153849250e+07 1.040910499270e+07 1.040684188115e+07 1.040473344087e+07 1.040276576833e+07 1.040092646444e+07 1.039920447871e+07 1.039758982706e+07 1.039607345504e+07 1.039464690210e+07 1.039330200513e+07 1.039203014079e+07 1.039082107126e+07 1.038966052514e+07 1.038852580654e+07 1.038737713799e+07 1.038614142063e+07 1.038468615573e+07 1.046700467858e+07 1.046310842836e+07 1.045680592603e+07 1.045068693175e+07 1.044504236112e+07 1.043989151532e+07 1.043519499312e+07 1.043090494801e+07 1.042697656024e+07 1.042337025267e+07 1.042005149590e+07 1.041699024068e+07 1.041416024625e+07 1.041153855479e+07 1.040910500527e+07 1.040684184204e+07 1.040473337256e+07 1.040276566636e+07 1.040092632768e+07 1.039920427318e+07 1.039758955513e+07 1.039607310949e+07 1.039464651007e+07 1.039330156031e+07 1.039202965268e+07 1.039082053212e+07 1.038965996077e+07 1.038852522452e+07 1.038737655220e+07 1.038614082918e+07 1.038468552895e+07 1.046700664270e+07 1.046311004503e+07 1.045680734239e+07 1.045068818996e+07 1.044504349822e+07 1.043989250760e+07 1.043519583692e+07 1.043090562935e+07 1.042697710645e+07 1.042337066294e+07 1.042005177578e+07 1.041699038486e+07 1.041416028235e+07 1.041153850894e+07 1.040910490332e+07 1.040684168424e+07 1.040473315414e+07 1.040276538880e+07 1.040092601365e+07 1.039920393836e+07 1.039758919995e+07 1.039607270953e+07 1.039464606292e+07 1.039330105659e+07 1.039202910727e+07 1.039081992763e+07 1.038965929754e+07 1.038852448341e+07 1.038737575643e+07 1.038613998838e+07 1.038468460834e+07 1.046700854531e+07 1.046311167472e+07 1.045680880040e+07 1.045068947997e+07 1.044504464812e+07 1.043989351886e+07 1.043519671028e+07 1.043090633933e+07 1.042697765318e+07 1.042337104265e+07 1.042005201361e+07 1.041699049075e+07 1.041416026861e+07 1.041153838396e+07 1.040910469332e+07 1.040684142032e+07 1.040473285778e+07 1.040276507264e+07 1.040092566778e+07 1.039920356640e+07 1.039758878586e+07 1.039607226501e+07 1.039464554942e+07 1.039330048553e+07 1.039202846035e+07 1.039081924333e+07 1.038965856364e+07 1.038852372550e+07 1.038737494770e+07 1.038613914495e+07 1.038468367030e+07 1.046701006446e+07 1.046311296697e+07 1.045680992508e+07 1.045069047307e+07 1.044504548835e+07 1.043989425032e+07 1.043519731773e+07 1.043090685126e+07 1.042697802773e+07 1.042337130029e+07 1.042005214345e+07 1.041699052811e+07 1.041416020726e+07 1.041153823674e+07 1.040910445102e+07 1.040684110911e+07 1.040473251077e+07 1.040276471986e+07 1.040092531610e+07 1.039920319934e+07 1.039758841112e+07 1.039607188400e+07 1.039464519270e+07 1.039330012682e+07 1.039202808311e+07 1.039081880974e+07 1.038965809103e+07 1.038852320355e+07 1.038737436816e+07 1.038613847280e+07 1.038468288196e+07 1.046701085847e+07 1.046311361098e+07 1.045681047296e+07 1.045069092611e+07 1.044504587893e+07 1.043989455797e+07 1.043519756269e+07 1.043090701878e+07 1.042697814274e+07 1.042337134889e+07 1.042005212378e+07 1.041699042355e+07 1.041416003014e+07 1.041153800590e+07 1.040910419247e+07 1.040684083665e+07 1.040473221882e+07 1.040276441551e+07 1.040092502125e+07 1.039920295193e+07 1.039758820905e+07 1.039607171542e+07 1.039464502292e+07 1.039329996374e+07 1.039202792744e+07 1.039081866118e+07 1.038965790313e+07 1.038852295450e+07 1.038737406447e+07 1.038613815435e+07 1.038468251943e+07 1.046701073246e+07 1.046311347573e+07 1.045681031156e+07 1.045069075561e+07 1.044504570165e+07 1.043989437813e+07 1.043519738010e+07 1.043090683997e+07 1.042697796728e+07 1.042337115649e+07 1.042005190950e+07 1.041699018324e+07 1.041415978755e+07 1.041153776621e+07 1.040910396680e+07 1.040684061853e+07 1.040473203424e+07 1.040276428223e+07 1.040092495169e+07 1.039920293104e+07 1.039758823817e+07 1.039607179271e+07 1.039464516254e+07 1.039330014473e+07 1.039202813294e+07 1.039081886919e+07 1.038965812610e+07 1.038852318858e+07 1.038737429101e+07 1.038613833673e+07 1.038468267205e+07 1.046700972617e+07 1.046311253309e+07 1.045680942555e+07 1.045068992417e+07 1.044504493077e+07 1.043989368364e+07 1.043519676117e+07 1.043090629183e+07 1.042697748059e+07 1.042337075199e+07 1.042005158257e+07 1.041698992503e+07 1.041415956145e+07 1.041153756470e+07 1.040910379479e+07 1.040684049059e+07 1.040473194347e+07 1.040276422139e+07 1.040092493348e+07 1.039920299312e+07 1.039758840921e+07 1.039607207371e+07 1.039464553249e+07 1.039330059719e+07 1.039202866399e+07 1.039081946976e+07 1.038965875878e+07 1.038852382032e+07 1.038737491209e+07 1.038613896063e+07 1.038468333234e+07 1.046700779700e+07 1.046311077713e+07 1.045680782741e+07 1.045068846723e+07 1.044504360042e+07 1.043989247456e+07 1.043519568960e+07 1.043090536859e+07 1.042697670571e+07 1.042337010342e+07 1.042005105435e+07 1.041698952097e+07 1.041415928822e+07 1.041153740478e+07 1.040910371644e+07 1.040684048838e+07 1.040473203005e+07 1.040276441460e+07 1.040092522078e+07 1.039920334938e+07 1.039758881287e+07 1.039607254186e+07 1.039464608181e+07 1.039330123040e+07 1.039202936476e+07 1.039082023391e+07 1.038965959914e+07 1.038852475288e+07 1.038737592373e+07 1.038614001112e+07 1.038468447068e+07 1.046700496389e+07 1.046310833360e+07 1.045680562698e+07 1.045068650355e+07 1.044504186109e+07 1.043989094076e+07 1.043519433871e+07 1.043090419768e+07 1.042697572258e+07 1.042336931401e+07 1.042005044655e+07 1.041698907140e+07 1.041415898441e+07 1.041153723841e+07 1.040910368202e+07 1.040684055622e+07 1.040473217830e+07 1.040276463270e+07 1.040092551897e+07 1.039920372775e+07 1.039758927118e+07 1.039607306441e+07 1.039464667979e+07 1.039330191920e+07 1.039203015808e+07 1.039082112671e+07 1.038966058876e+07 1.038852583062e+07 1.038737709513e+07 1.038614127551e+07 1.038468584337e+07 1.046700183463e+07 1.046310558885e+07 1.045680317362e+07 1.045068430338e+07 1.044503989911e+07 1.043988921243e+07 1.043519283481e+07 1.043090289910e+07 1.042697461397e+07 1.042336840336e+07 1.042004974999e+07 1.041698858774e+07 1.041415868543e+07 1.041153709909e+07 1.040910368768e+07 1.040684070009e+07 1.040473243133e+07 1.040276495705e+07 1.040092589138e+07 1.039920416221e+07 1.039758978250e+07 1.039607365274e+07 1.039464732511e+07 1.039330262488e+07 1.039203095330e+07 1.039082203937e+07 1.038966161024e+07 1.038852695145e+07 1.038737832768e+07 1.038614266166e+07 1.038468742690e+07 1.046699873789e+07 1.046310285415e+07 1.045680074333e+07 1.045068215566e+07 1.044503799528e+07 1.043988751991e+07 1.043519134237e+07 1.043090161018e+07 1.042697353329e+07 1.042336751018e+07 1.042004902242e+07 1.041698802880e+07 1.041415831113e+07 1.041153690437e+07 1.040910363944e+07 1.040684076552e+07 1.040473260863e+07 1.040276525497e+07 1.040092629062e+07 1.039920461093e+07 1.039759024521e+07 1.039607413994e+07 1.039464787365e+07 1.039330324971e+07 1.039203164411e+07 1.039082279609e+07 1.038966247571e+07 1.038852797191e+07 1.038737950827e+07 1.038614396397e+07 1.038468882121e+07 1.046699593650e+07 1.046310039632e+07 1.045679855300e+07 1.045068020343e+07 1.044503626864e+07 1.043988600626e+07 1.043519001975e+07 1.043090045952e+07 1.042697254764e+07 1.042336670445e+07 1.042004840361e+07 1.041698757587e+07 1.041415799168e+07 1.041153670581e+07 1.040910357147e+07 1.040684083520e+07 1.040473278853e+07 1.040276550125e+07 1.040092658324e+07 1.039920496254e+07 1.039759066475e+07 1.039607461509e+07 1.039464837787e+07 1.039330377980e+07 1.039203222395e+07 1.039082345776e+07 1.038966323005e+07 1.038852882448e+07 1.038738048035e+07 1.038614509329e+07 1.038469012146e+07 1.046699378971e+07 1.046309843266e+07 1.045679677410e+07 1.045067860121e+07 1.044503483238e+07 1.043988472930e+07 1.043518890157e+07 1.043089949598e+07 1.042697173316e+07 1.042336602988e+07 1.042004786410e+07 1.041698717390e+07 1.041415772548e+07 1.041153656455e+07 1.040910353839e+07 1.040684088923e+07 1.040473291529e+07 1.040276568369e+07 1.040092680163e+07 1.039920519882e+07 1.039759092471e+07 1.039607491419e+07 1.039464873301e+07 1.039330418948e+07 1.039203268149e+07 1.039082396541e+07 1.038966381156e+07 1.038852949671e+07 1.038738124203e+07 1.038614593382e+07 1.038469100847e+07 1.046699229473e+07 1.046309691143e+07 1.045679538631e+07 1.045067739716e+07 1.044503380750e+07 1.043988385112e+07 1.043518814131e+07 1.043089884324e+07 1.042697119126e+07 1.042336559645e+07 1.042004752647e+07 1.041698691088e+07 1.041415753207e+07 1.041153644499e+07 1.040910349699e+07 1.040684091547e+07 1.040473299088e+07 1.040276579596e+07 1.040092695098e+07 1.039920538752e+07 1.039759114566e+07 1.039607515741e+07 1.039464900069e+07 1.039330449425e+07 1.039203303996e+07 1.039082438219e+07 1.038966428303e+07 1.038853002234e+07 1.038738183202e+07 1.038614658484e+07 1.038469171957e+07 1.046698971345e+07 1.046309555064e+07 1.045679456395e+07 1.045067681802e+07 1.044503336042e+07 1.043988349794e+07 1.043518786340e+07 1.043089861936e+07 1.042697100415e+07 1.042336543744e+07 1.042004740360e+07 1.041698683104e+07 1.041415748597e+07 1.041153641414e+07 1.040910347543e+07 1.040684091449e+07 1.040473302413e+07 1.040276586308e+07 1.040092703236e+07 1.039920546757e+07 1.039759122503e+07 1.039607524835e+07 1.039464910170e+07 1.039330460050e+07 1.039203315338e+07 1.039082452784e+07 1.038966449264e+07 1.038853033353e+07 1.038738227770e+07 1.038614722217e+07 1.038469259058e+07 
        </DataArray>
        <DataArray type="Float64" Name="STRESS_3" format="ascii">
          -5.214976416981e+07 -4.773753488592e+07 -4.373943997817e+07 -4.009995250580e+07 -3.677685297971e+07 -3.373436305209e+07 -3.094172258786e+07 -2.837229904988e+07 -2.600292259571e+07 -2.381335492932e+07 -2.178585401370e+07 -1.990481325002e+07 -1.815646025259e+07 -1.652860407344e+07 -1.501042217938e+07 -1.359228016761e+07 -1.226557871226e+07 -1.102262293030e+07 -9.856510652992e+06 -8.761036374496e+06 -7.730608700382e+06 -6.760178997348e+06 -5.845179910886e+06 -4.981472120754e+06 -4.165298879365e+06 -3.393247746856e+06 -2.662220438723e+06 -1.969412276677e+06 -1.312305822177e+06 -6.886869247873e+05 -9.665410999342e+04 -5.214975941796e+07 -4.773753274786e+07 -4.373943836273e+07 -4.009995100488e+07 -3.677685150492e+07 -3.373436166083e+07 -3.094172136170e+07 -2.837229796457e+07 -2.600292155150e+07 -2.381335387291e+07 -2.178585299377e+07 -1.990481234482e+07 -1.815645949582e+07 -1.652860340334e+07 -1.501042153809e+07 -1.359227955369e+07 -1.226557818838e+07 -1.102262250659e+07 -9.856510302150e+06 -8.761036014713e+06 -7.730608310231e+06 -6.760178581384e+06 -5.845179511279e+06 -4.981471702133e+06 -4.165298404236e+06 -3.393247190102e+06 -2.662219875188e+06 -1.969411781099e+06 -1.312305464211e+06 -6.886867253586e+05 -9.665407811424e+04 -5.214975943697e+07 -4.773753250733e+07 -4.373943791283e+07 -4.009995052975e+07 -3.677685113787e+07 -3.373436135609e+07 -3.094172108249e+07 -2.837229770300e+07 -2.600292142117e+07 -2.381335390751e+07 -2.178585315579e+07 -1.990481253288e+07 -1.815645965477e+07 -1.652860356053e+07 -1.501042172276e+07 -1.359227977216e+07 -1.226557837262e+07 -1.102262266596e+07 -9.856510458492e+06 -8.761036272303e+06 -7.730608667554e+06 -6.760179042523e+06 -5.845179997349e+06 -4.981472225630e+06 -4.165298942812e+06 -3.393247749018e+06 -2.662220362069e+06 -1.969412145064e+06 -1.312305656852e+06 -6.886867587239e+05 -9.665403711685e+04 -5.214975944200e+07 -4.773753223027e+07 -4.373943732094e+07 -4.009994971957e+07 -3.677685018760e+07 -3.373436047345e+07 -3.094172038800e+07 -2.837229728359e+07 -2.600292123006e+07 -2.381335396391e+07 -2.178585347402e+07 -1.990481313663e+07 -1.815646045750e+07 -1.652860445888e+07 -1.501042262470e+07 -1.359228066720e+07 -1.226557926979e+07 -1.102262355276e+07 -9.856511267016e+06 -8.761036963901e+06 -7.730609255839e+06 -6.760179602684e+06 -5.845180533937e+06 -4.981472743907e+06 -4.165299381892e+06 -3.393248133008e+06 -2.662220680425e+06 -1.969412436422e+06 -1.312305848391e+06 -6.886868019818e+05 -9.665398974653e+04 -5.214975945404e+07 -4.773753191324e+07 -4.373943668705e+07 -4.009994895938e+07 -3.677684937381e+07 -3.373435970707e+07 -3.094171975375e+07 -2.837229691344e+07 -2.600292116064e+07 -2.381335421390e+07 -2.178585397532e+07 -1.990481386494e+07 -1.815646138602e+07 -1.652860555946e+07 -1.501042381187e+07 -1.359228184650e+07 -1.226558038900e+07 -1.102262459030e+07 -9.856512250238e+06 -8.761037872948e+06 -7.730610115011e+06 -6.760180377655e+06 -5.845181318658e+06 -4.981473504581e+06 -4.165300145925e+06 -3.393248787223e+06 -2.662221238244e+06 -1.969412816884e+06 -1.312306090132e+06 -6.886868348817e+05 -9.665394232648e+04 -5.214975946509e+07 -4.773753167070e+07 -4.373943627454e+07 -4.009994845204e+07 -3.677684893998e+07 -3.373435931075e+07 -3.094171947653e+07 -2.837229673090e+07 -2.600292122702e+07 -2.381335451823e+07 -2.178585455057e+07 -1.990481461189e+07 -1.815646231143e+07 -1.652860664613e+07 -1.501042509508e+07 -1.359228325048e+07 -1.226558179750e+07 -1.102262590514e+07 -9.856513455231e+06 -8.761039017241e+06 -7.730611163772e+06 -6.760181289484e+06 -5.845181989396e+06 -4.981473999199e+06 -4.165300523864e+06 -3.393249139979e+06 -2.662221489555e+06 -1.969412951434e+06 -1.312306105885e+06 -6.886868118554e+05 -9.665393021889e+04 -5.214975945734e+07 -4.773753160176e+07 -4.373943612256e+07 -4.009994828437e+07 -3.677684873874e+07 -3.373435918664e+07 -3.094171943607e+07 -2.837229684061e+07 -2.600292142967e+07 -2.381335484718e+07 -2.178585502893e+07 -1.990481530429e+07 -1.815646319260e+07 -1.652860764219e+07 -1.501042611236e+07 -1.359228425347e+07 -1.226558282229e+07 -1.102262694493e+07 -9.856514435690e+06 -8.761039818152e+06 -7.730611795308e+06 -6.760181812936e+06 -5.845182507160e+06 -4.981474467621e+06 -4.165300889671e+06 -3.393249371166e+06 -2.662221698272e+06 -1.969413191231e+06 -1.312306331896e+06 -6.886868818444e+05 -9.665388597858e+04 -5.214975945211e+07 -4.773753162454e+07 -4.373943620399e+07 -4.009994839119e+07 -3.677684888203e+07 -3.373435937049e+07 -3.094171965547e+07 -2.837229707203e+07 -2.600292168399e+07 -2.381335519383e+07 -2.178585548409e+07 -1.990481586058e+07 -1.815646377585e+07 -1.652860825416e+07 -1.501042675650e+07 -1.359228495301e+07 -1.226558348688e+07 -1.102262749830e+07 -9.856514846327e+06 -8.761040143183e+06 -7.730612036893e+06 -6.760181951255e+06 -5.845182486075e+06 -4.981474344970e+06 -4.165300736632e+06 -3.393249253626e+06 -2.662221567107e+06 -1.969413028764e+06 -1.312306179892e+06 -6.886868359469e+05 -9.665391656058e+04 -5.214975945748e+07 -4.773753174444e+07 -4.373943644075e+07 -4.009994871688e+07 -3.677684923291e+07 -3.373435966644e+07 -3.094171989275e+07 -2.837229726958e+07 -2.600292185571e+07 -2.381335526747e+07 -2.178585546710e+07 -1.990481580618e+07 -1.815646381197e+07 -1.652860840004e+07 -1.501042696824e+07 -1.359228517461e+07 -1.226558374579e+07 -1.102262783114e+07 -9.856515207679e+06 -8.761040403533e+06 -7.730612103930e+06 -6.760181837749e+06 -5.845182263835e+06 -4.981474025373e+06 -4.165300304065e+06 -3.393248726103e+06 -2.662221068551e+06 -1.969412680784e+06 -1.312306020130e+06 -6.886868188226e+05 -9.665394411266e+04 -5.214975946120e+07 -4.773753200898e+07 -4.373943690752e+07 -4.009994933846e+07 -3.677684997136e+07 -3.373436045832e+07 -3.094172061791e+07 -2.837229784559e+07 -2.600292226841e+07 -2.381335557562e+07 -2.178585568040e+07 -1.990481588773e+07 -1.815646372269e+07 -1.652860818909e+07 -1.501042673577e+07 -1.359228493799e+07 -1.226558345761e+07 -1.102262743240e+07 -9.856514739655e+06 -8.761039947478e+06 -7.730611715843e+06 -6.760181456988e+06 -5.845181840761e+06 -4.981473576310e+06 -4.165299908597e+06 -3.393248415716e+06 -2.662220804100e+06 -1.969412412878e+06 -1.312305794357e+06 -6.886867725408e+05 -9.665400188495e+04 -5.214975943295e+07 -4.773753239138e+07 -4.373943768557e+07 -4.009995028838e+07 -3.677685096243e+07 -3.373436143840e+07 -3.094172156506e+07 -2.837229868913e+07 -2.600292291676e+07 -2.381335597483e+07 -2.178585585543e+07 -1.990481589891e+07 -1.815646359435e+07 -1.652860793156e+07 -1.501042636626e+07 -1.359228455172e+07 -1.226558312351e+07 -1.102262717380e+07 -9.856514520891e+06 -8.761039763733e+06 -7.730611568246e+06 -6.760181381299e+06 -5.845181798065e+06 -4.981473521579e+06 -4.165299814745e+06 -3.393248308241e+06 -2.662220700645e+06 -1.969412343839e+06 -1.312305759665e+06 -6.886867882959e+05 -9.665402147003e+04 -5.214975942529e+07 -4.773753277412e+07 -4.373943843475e+07 -4.009995130449e+07 -3.677685211195e+07 -3.373436258515e+07 -3.094172263431e+07 -2.837229967178e+07 -2.600292380360e+07 -2.381335668512e+07 -2.178585629462e+07 -1.990481605889e+07 -1.815646355972e+07 -1.652860776737e+07 -1.501042608308e+07 -1.359228413956e+07 -1.226558266059e+07 -1.102262678066e+07 -9.856514257783e+06 -8.761039570064e+06 -7.730611390766e+06 -6.760181235613e+06 -5.845181762861e+06 -4.981473585374e+06 -4.165299874281e+06 -3.393248286381e+06 -2.662220661227e+06 -1.969412373187e+06 -1.312305867181e+06 -6.886868858073e+05 -9.665403653236e+04 -5.214975943440e+07 -4.773753314070e+07 -4.373943905513e+07 -4.009995205413e+07 -3.677685296798e+07 -3.373436353772e+07 -3.094172362126e+07 -2.837230059979e+07 -2.600292460745e+07 -2.381335740069e+07 -2.178585695772e+07 -1.990481660801e+07 -1.815646389516e+07 -1.652860788015e+07 -1.501042607646e+07 -1.359228411142e+07 -1.226558259148e+07 -1.102262660838e+07 -9.856514027349e+06 -8.761039449501e+06 -7.730611493646e+06 -6.760181517380e+06 -5.845182097967e+06 -4.981473942743e+06 -4.165300323627e+06 -3.393248851305e+06 -2.662221205760e+06 -1.969412733812e+06 -1.312306013540e+06 -6.886869284071e+05 -9.665403459545e+04 -5.214975944420e+07 -4.773753344689e+07 -4.373943961595e+07 -4.009995279369e+07 -3.677685379745e+07 -3.373436440310e+07 -3.094172452115e+07 -2.837230154029e+07 -2.600292555292e+07 -2.381335824497e+07 -2.178585762876e+07 -1.990481713621e+07 -1.815646434813e+07 -1.652860825895e+07 -1.501042630987e+07 -1.359228415227e+07 -1.226558252001e+07 -1.102262656146e+07 -9.856514058061e+06 -8.761039503091e+06 -7.730611535370e+06 -6.760181597240e+06 -5.845182308382e+06 -4.981474290987e+06 -4.165300723215e+06 -3.393249211193e+06 -2.662221524490e+06 -1.969413037380e+06 -1.312306270000e+06 -6.886870529178e+05 -9.665402734552e+04 -5.214975944613e+07 -4.773753370073e+07 -4.373944009543e+07 -4.009995347612e+07 -3.677685464510e+07 -3.373436534338e+07 -3.094172546791e+07 -2.837230243298e+07 -2.600292636043e+07 -2.381335896051e+07 -2.178585823147e+07 -1.990481758772e+07 -1.815646463430e+07 -1.652860840417e+07 -1.501042636129e+07 -1.359228415736e+07 -1.226558249603e+07 -1.102262653674e+07 -9.856514088381e+06 -8.761039647652e+06 -7.730611785667e+06 -6.760181907097e+06 -5.845182633015e+06 -4.981474640901e+06 -4.165301126166e+06 -3.393249655416e+06 -2.662221926501e+06 -1.969413329224e+06 -1.312306442041e+06 -6.886871174195e+05 -9.665400607438e+04 -5.214975935407e+07 -4.773753385101e+07 -4.373944066501e+07 -4.009995421810e+07 -3.677685540802e+07 -3.373436610359e+07 -3.094172622579e+07 -2.837230315098e+07 -2.600292697670e+07 -2.381335945028e+07 -2.178585862494e+07 -1.990481793647e+07 -1.815646493497e+07 -1.652860862091e+07 -1.501042647198e+07 -1.359228419450e+07 -1.226558251159e+07 -1.102262655187e+07 -9.856514077914e+06 -8.761039590405e+06 -7.730611704317e+06 -6.760181842104e+06 -5.845182586240e+06 -4.981474584534e+06 -4.165301031960e+06 -3.393249546028e+06 -2.662221856713e+06 -1.969413334538e+06 -1.312306499608e+06 -6.886871985542e+05 -9.665403105718e+04 -5.214976459998e+07 -4.773753738452e+07 -4.373944331618e+07 -4.009995643444e+07 -3.677685736241e+07 -3.373436783621e+07 -3.094172776404e+07 -2.837230456414e+07 -2.600292832562e+07 -2.381336074844e+07 -2.178585981531e+07 -1.990481896826e+07 -1.815646582496e+07 -1.652860942762e+07 -1.501042720821e+07 -1.359228481899e+07 -1.226558298799e+07 -1.102262690805e+07 -9.856514406414e+06 -8.761039965627e+06 -7.730612138561e+06 -6.760182309620e+06 -5.845183102343e+06 -4.981475175645e+06 -4.165301694482e+06 -3.393250201977e+06 -2.662222405197e+06 -1.969413681439e+06 -1.312306613715e+06 -6.886870836005e+05 -9.665398432483e+04 
        </DataArray>
        <DataArray type="Float64" Name="STRESS_XX" format="ascii">
          -5.214975943697e+07 -4.773753277424e+07 -4.373943837601e+07 -4.009995108684e+07 -3.677685166367e+07 -3.373436181408e+07 -3.094172141727e+07 -2.837229794030e+07 -2.600292154220e+07 -2.381335392769e+07 -2.178585306021e+07 -1.990481234130e+07 -1.815645938558e+07 -1.652860324536e+07 -1.501042138767e+07 -1.359227940996e+07 -1.226557798653e+07 -1.102262223454e+07 -9.856509985411e+06 -8.761035733481e+06 -7.730608084506e+06 -6.760178405426e+06 -5.845179342116e+06 -4.981471575010e+06 -4.165298357807e+06 -3.393247253152e+06 -2.662219981356e+06 -1.969411872939e+06 -1.312305503554e+06 -6.886867375774e+05 -9.665407914739e+04 -5.081251547983e+07 -4.648519311818e+07 -4.256412271828e+07 -3.899476296316e+07 -3.573569658999e+07 -3.275183224385e+07 -3.001300211971e+07 -2.749308684149e+07 -2.516936312739e+07 -2.302198286702e+07 -2.103354613806e+07 -1.918874720700e+07 -1.747407911412e+07 -1.587758579532e+07 -1.438865331865e+07 -1.299783302747e+07 -1.169669139675e+07 -1.047768179027e+07 -9.334035023345e+06 -8.259665127299e+06 -7.249088527038e+06 -6.297353912080e+06 -5.399981998310e+06 -4.552913186024e+06 -3.752463187985e+06 -2.995285473683e+06 -2.278341848207e+06 -1.598882247724e+06 -9.544388735409e+05 -3.428424119983e+05 2.377678354046e+05 -4.685217303790e+07 -4.277630060308e+07 -3.908334205078e+07 -3.572167018663e+07 -3.265224260033e+07 -2.984200190957e+07 -2.726253447029e+07 -2.488924101840e+07 -2.270072113210e+07 -2.067828204873e+07 -1.880553666927e+07 -1.706807015437e+07 -1.545316180646e+07 -1.394955155125e+07 -1.254724322805e+07 -1.123733809158e+07 -1.001189337904e+07 -8.863801738094e+06 -7.786687945491e+06 -6.774820293751e+06 -5.823034228204e+06 -4.926666607064e+06 -4.081498778228e+06 -3.283707566462e+06 -2.529823244874e+06 -1.816694465414e+06 -1.141460592246e+06 -5.015333629491e+05 1.054079877398e+05 6.813997852831e+05 1.228181880254e+06 -4.042092540875e+07 -3.675338611024e+07 -3.343086141307e+07 -3.040645641287e+07 -2.764498533577e+07 -2.511669421513e+07 -2.279601792833e+07 -2.066082566593e+07 -1.869186489978e+07 -1.687231924634e+07 -1.518744645276e+07 -1.362427852804e+07 -1.217137141394e+07 -1.081859512428e+07 -9.556956720624e+06 -8.378450571209e+06 -7.275931014706e+06 -6.243003903015e+06 -5.273933700384e+06 -4.363563885929e+06 -3.507248196488e+06 -2.700791486880e+06 -1.940398408074e+06 -1.222629562344e+06 -5.443636536649e+05 9.723366020045e+04 7.047345408250e+05 1.280464532230e+06 1.826505751733e+06 2.344678628114e+06 2.836526769253e+06 -3.176592156610e+07 -2.864790678789e+07 -2.582390265791e+07 -2.325338290742e+07 -2.090635187534e+07 -1.875750111551e+07 -1.678509907024e+07 -1.497033700890e+07 -1.329685308987e+07 -1.175035602227e+07 -1.031831707842e+07 -8.989715412605e+06 -7.754825181837e+06 -6.605037274159e+06 -5.532708796956e+06 -4.531035942034e+06 -3.593945762396e+06 -2.716003974124e+06 -1.892336047857e+06 -1.118559448801e+06 -3.907253748210e+05 2.947316521769e+05 9.410370987532e+05 1.551113996582e+06 2.127614572949e+06 2.672946800809e+06 3.189294464358e+06 3.678629704350e+06 4.142713198231e+06 4.583074959982e+06 5.000994516953e+06 -2.121976840173e+07 -1.877135184918e+07 -1.655479738457e+07 -1.453733875569e+07 -1.269530471203e+07 -1.100880350683e+07 -9.460774945909e+06 -8.036458105226e+06 -6.723013706226e+06 -5.509227163054e+06 -4.385267094526e+06 -3.342485120474e+06 -2.373249142413e+06 -1.470803189037e+06 -6.291495230948e+05 1.570513026699e+05 8.925651880675e+05 1.581656832880e+06 2.228151654018e+06 2.835488983453e+06 3.406767866170e+06 3.944786427306e+06 4.452075936817e+06 4.930929958271e+06 5.383429280541e+06 5.811462140578e+06 6.216739358542e+06 6.600802265048e+06 6.965020003672e+06 7.310568536794e+06 7.638405814219e+06 -9.187749115120e+06 -7.503272225040e+06 -5.979752411856e+06 -4.593276927611e+06 -3.327389806643e+06 -2.168379498035e+06 -1.104515123209e+06 -1.256540568188e+05 7.770243913372e+05 1.611224384534e+06 2.383699987608e+06 3.100392689673e+06 3.766546006457e+06 4.386801655425e+06 4.965280504595e+06 5.505651197748e+06 6.011188341061e+06 6.484822312143e+06 6.929181711357e+06 7.346629882137e+06 7.739296237814e+06 8.109103438324e+06 8.457790627910e+06 8.786933482080e+06 9.097960804156e+06 9.392167918278e+06 9.670725784923e+06 9.934684347296e+06 1.018496610829e+07 1.042234323000e+07 1.064740669839e+07 3.867751751649e+06 4.723305735519e+06 5.494839000806e+06 6.196657830507e+06 6.837389015377e+06 7.424038344269e+06 7.962553962112e+06 8.458067428290e+06 8.915038887605e+06 9.337363484130e+06 9.728456242004e+06 1.009132155748e+07 1.042861116816e+07 1.074267261265e+07 1.103559022256e+07 1.130921971790e+07 1.156521770511e+07 1.180506668282e+07 1.203009654456e+07 1.224150300727e+07 1.244036351201e+07 1.262765080634e+07 1.280424462754e+07 1.297094150307e+07 1.312846280481e+07 1.327746050274e+07 1.341851996317e+07 1.355215785634e+07 1.367881195130e+07 1.379881614388e+07 1.391236340484e+07 1.744501781638e+07 1.743852092896e+07 1.742801445776e+07 1.741781426915e+07 1.740840514022e+07 1.739981910045e+07 1.739199042687e+07 1.738483932236e+07 1.737829111158e+07 1.737227981984e+07 1.736674787807e+07 1.736164517753e+07 1.735692800666e+07 1.735255813990e+07 1.734850200243e+07 1.734472998283e+07 1.734121588874e+07 1.733793649470e+07 1.733487115875e+07 1.733200140947e+07 1.732931060205e+07 1.732678356685e+07 1.732440622810e+07 1.732216494848e+07 1.732004538293e+07 1.731803041892e+07 1.731609629287e+07 1.731420516092e+07 1.731229079224e+07 1.731023139445e+07 1.730780595849e+07 3.102228129992e+07 3.015373385427e+07 2.936118803874e+07 2.863896918831e+07 2.797942005472e+07 2.737559888337e+07 2.682142613626e+07 2.631161066522e+07 2.584154299023e+07 2.540719591976e+07 2.500503937579e+07 2.463196878625e+07 2.428524503301e+07 2.396244404455e+07 2.366141429441e+07 2.338024086193e+07 2.311721483625e+07 2.287080727327e+07 2.263964688061e+07 2.242250094592e+07 2.221825878276e+07 2.202591741805e+07 2.184456897998e+07 2.167338958679e+07 2.151162915326e+07 2.135860154245e+07 2.121367394977e+07 2.107625397257e+07 2.094577124418e+07 2.082164818280e+07 2.070324988815e+07 4.407777466160e+07 4.238030600799e+07 4.083577492693e+07 3.942890047669e+07 3.814419631826e+07 3.696801495151e+07 3.588849410148e+07 3.489533155997e+07 3.397955734855e+07 3.313333534344e+07 3.234979638423e+07 3.162289878015e+07 3.094731160320e+07 3.031831666661e+07 2.973172592573e+07 2.918381153641e+07 2.867124650116e+07 2.819105402134e+07 2.774056416794e+07 2.731737664529e+07 2.691932873292e+07 2.654446749807e+07 2.619102565322e+07 2.585740028145e+07 2.554213388474e+07 2.524389694444e+07 2.496147098216e+07 2.469373036970e+07 2.443962009286e+07 2.419812435561e+07 2.396821014553e+07 5.610978327441e+07 5.364837743353e+07 5.141081354750e+07 4.937295746975e+07 4.751210757604e+07 4.580843636212e+07 4.424475220941e+07 4.280613470640e+07 4.147959518600e+07 4.025378719200e+07 3.911876428401e+07 3.806577794986e+07 3.708710862177e+07 3.617592381706e+07 3.532615858833e+07 3.453241434442e+07 3.378987286327e+07 3.309422299528e+07 3.244159793190e+07 3.182852135675e+07 3.125186101742e+07 3.070878855211e+07 3.019674458450e+07 2.971340819328e+07 2.925666990104e+07 2.882460729600e+07 2.841546214397e+07 2.802761738488e+07 2.765957130633e+07 2.730990425507e+07 2.697721630531e+07 6.665592441280e+07 6.352492268205e+07 6.067991104004e+07 5.808899542077e+07 5.572314996508e+07 5.355713035165e+07 5.156907375952e+07 4.974001189916e+07 4.805343374348e+07 4.649491600788e+07 4.505181496031e+07 4.371300952539e+07 4.246868650450e+07 4.131016025739e+07 4.022972074041e+07 3.922050490466e+07 3.827638744758e+07 3.739188765357e+07 3.656208965264e+07 3.578257396901e+07 3.504935852873e+07 3.435884764220e+07 3.370778769994e+07 3.309322846632e+07 3.251248899719e+07 3.196312718005e+07 3.144291169108e+07 3.094979473109e+07 3.048188304844e+07 3.003740298386e+07 2.961463299957e+07 7.531091669242e+07 7.163039251527e+07 6.828686187161e+07 6.524206240075e+07 6.246177811488e+07 5.991631925358e+07 5.757998945216e+07 5.543049841689e+07 5.344844436556e+07 5.161687892728e+07 4.992094478289e+07 4.834757375716e+07 4.688523442795e+07 4.552372029353e+07 4.425397122647e+07 4.306792236718e+07 4.195837573417e+07 4.091889076322e+07 3.994369063891e+07 3.902758187317e+07 3.816588498003e+07 3.735437453781e+07 3.658922715376e+07 3.586697610874e+07 3.518447148219e+07 3.453884468634e+07 3.392747614193e+07 3.334796454264e+07 3.279809530330e+07 3.227580425498e+07 3.177910590430e+07 8.174215499064e+07 7.765329884913e+07 7.393933536032e+07 7.055726999194e+07 6.746903009782e+07 6.464162261828e+07 6.204650259583e+07 5.965891127224e+07 5.745729887969e+07 5.542284074838e+07 5.353903470647e+07 5.179136575130e+07 5.016702572553e+07 4.865467804365e+07 4.724425936728e+07 4.592681177581e+07 4.469434020321e+07 4.353969086318e+07 4.245644722385e+07 4.143884065222e+07 4.048167343593e+07 3.958025221175e+07 3.873033022461e+07 3.792805697259e+07 3.716993404184e+07 3.645277591487e+07 3.577367450930e+07 3.512996584185e+07 3.451919656653e+07 3.393908664123e+07 3.338745439982e+07 8.570249073854e+07 8.136218470109e+07 7.742011023607e+07 7.383035797992e+07 7.055248024956e+07 6.755144985833e+07 6.479696773575e+07 6.226275507284e+07 5.992593938072e+07 5.776654058147e+07 5.576704363189e+07 5.391204257145e+07 5.218794303051e+07 5.058271250708e+07 4.908566989926e+07 4.768730736062e+07 4.637913898488e+07 4.515357177611e+07 4.400379525145e+07 4.292368660866e+07 4.190772901839e+07 4.095094097535e+07 4.004881501973e+07 3.919726432654e+07 3.839257589232e+07 3.763136904660e+07 3.691055804904e+07 3.622731715641e+07 3.557904597544e+07 3.496333148017e+07 3.437787116550e+07 8.703972557924e+07 8.261452044186e+07 7.859542359404e+07 7.493554440908e+07 7.159363391461e+07 6.853397825816e+07 6.572568613827e+07 6.314196551924e+07 6.075949728608e+07 5.855791120507e+07 5.651935020728e+07 5.462810749643e+07 5.287032324461e+07 5.123372998008e+07 4.970743800136e+07 4.828175377640e+07 4.694802567611e+07 4.569851242263e+07 4.452627051342e+07 4.342505754991e+07 4.238924893949e+07 4.141376587890e+07 4.049401287262e+07 3.962582329826e+07 3.880541168421e+07 3.802933146775e+07 3.729443692334e+07 3.659784772283e+07 3.593691388744e+07 3.530917763695e+07 3.471229592209e+07 
        </DataArray>
        <DataArray type="Float64" Name="STRESS_XY" format="ascii">
          -2.566633865265e+04 -1.659102384883e+04 -1.400001031301e+04 -1.277616744869e+04 -1.194236134049e+04 -1.125209520044e+04 -1.063756257711e+04 -1.007684209456e+04 -9.560583778199e+03 -9.083264063374e+03 -8.640793817548e+03 -8.229793139390e+03 -7.847337817425e+03 -7.490845429012e+03 -7.158021136992e+03 -6.846813727850e+03 -6.555385570082e+03 -6.282073979755e+03 -6.025354058034e+03 -5.783773012278e+03 -5.555864403863e+03 -5.339961338090e+03 -5.133840345704e+03 -4.933981487990e+03 -4.734100933100e+03 -4.522220632879e+03 -4.274905569340e+03 -3.946016529827e+03 -3.445066310397e+03 -2.595988139930e+03 -1.036203221838e+03 -1.357726531676e+07 -1.271521659730e+07 -1.193317840045e+07 -1.122116049166e+07 -1.057102094541e+07 -9.975786064007e+06 -9.429442052968e+06 -8.926777605619e+06 -8.463257942591e+06 -8.034921907993e+06 -7.638296989583e+06 -7.270328734909e+06 -6.928321761701e+06 -6.609890270994e+06 -6.312916337524e+06 -6.035514620899e+06 -5.776002373090e+06 -5.532873875601e+06 -5.304778540820e+06 -5.090502132628e+06 -4.888950572893e+06 -4.699135986667e+06 -4.520164573003e+06 -4.351226124779e+06 -4.191584925460e+06 -4.040571913234e+06 -3.897578012626e+06 -3.762048695405e+06 -3.633479903525e+06 -3.511415903376e+06 -3.395442610161e+06 -2.663276484034e+07 -2.494179506594e+07 -2.340777162426e+07 -2.201109800649e+07 -2.073580323447e+07 -1.956820787228e+07 -1.849651544258e+07 -1.751050358577e+07 -1.660127703590e+07 -1.576106568986e+07 -1.498305796061e+07 -1.426126228923e+07 -1.359039148312e+07 -1.296576563924e+07 -1.238323031354e+07 -1.183908727101e+07 -1.133003568668e+07 -1.085312197532e+07 -1.040569687662e+07 -9.985378586918e+06 -9.590021009816e+06 -9.217686328489e+06 -8.866621285593e+06 -8.535236596403e+06 -8.222089117944e+06 -7.925866447046e+06 -7.645373847901e+06 -7.379523539142e+06 -7.127326768037e+06 -6.887889596846e+06 -6.660399828071e+06 -3.866478343510e+07 -3.620987468748e+07 -3.398281707681e+07 -3.195516070982e+07 -3.010371927460e+07 -2.840863330517e+07 -2.685277692345e+07 -2.542130953172e+07 -2.410131716313e+07 -2.288151937870e+07 -2.175202728865e+07 -2.070414248468e+07 -1.973018912550e+07 -1.882337301887e+07 -1.797766284086e+07 -1.718768961652e+07 -1.644866128646e+07 -1.575628991226e+07 -1.510672935335e+07 -1.449652176905e+07 -1.392255151479e+07 -1.338200534170e+07 -1.287233791234e+07 -1.239124194824e+07 -1.193662230691e+07 -1.150657367568e+07 -1.109936155406e+07 -1.071340674651e+07 -1.034727380081e+07 -9.999664908636e+06 -9.669400954518e+06 -4.921093702321e+07 -4.608642954518e+07 -4.325192195592e+07 -4.067120429266e+07 -3.831476587853e+07 -3.615733037560e+07 -3.417710065438e+07 -3.235518820442e+07 -3.067515660767e+07 -2.912264855847e+07 -2.768507785581e+07 -2.635137354568e+07 -2.511176612828e+07 -2.395760821481e+07 -2.288122336164e+07 -2.187577815182e+07 -2.093517347837e+07 -2.005395184654e+07 -1.922721804218e+07 -1.845057105672e+07 -1.772004544705e+07 -1.703206063897e+07 -1.638337706518e+07 -1.577105808557e+07 -1.519243707874e+07 -1.464508901413e+07 -1.412680632133e+07 -1.363557905346e+07 -1.316958023687e+07 -1.272715804632e+07 -1.230681186170e+07 -5.786594220342e+07 -5.419190885559e+07 -5.085887967391e+07 -4.782427612096e+07 -4.505339727322e+07 -4.251652119703e+07 -4.018801717031e+07 -3.804567462578e+07 -3.607016642643e+07 -3.424461011574e+07 -3.255420586862e+07 -3.098593556339e+07 -2.952831150946e+07 -2.817116546798e+07 -2.690547089914e+07 -2.572319249921e+07 -2.461715844603e+07 -2.358095141130e+07 -2.260881528529e+07 -2.169557505975e+07 -2.083656782625e+07 -2.002758324849e+07 -1.926481199003e+07 -1.854480099594e+07 -1.786441468171e+07 -1.722080150735e+07 -1.661136557879e+07 -1.603374344782e+07 -1.548578683466e+07 -1.496555343541e+07 -1.447127869251e+07 -6.429719102342e+07 -6.021482308414e+07 -5.651135892029e+07 -5.313948770319e+07 -5.006065178824e+07 -4.724182594530e+07 -4.465453079378e+07 -4.227408726361e+07 -4.007902013653e+07 -3.805057065886e+07 -3.617229414870e+07 -3.442972565508e+07 -3.281010069044e+07 -3.130212087377e+07 -2.989575644189e+07 -2.858207908137e+07 -2.735311991887e+07 -2.620174837944e+07 -2.512156857792e+07 -2.410683034031e+07 -2.315235258761e+07 -2.225345708725e+07 -2.140591112927e+07 -2.060587781842e+07 -1.984987305950e+07 -1.913472841799e+07 -1.845755955670e+07 -1.781574033477e+07 -1.720688365566e+07 -1.662883130228e+07 -1.607962270598e+07 -6.825753348327e+07 -6.392371461072e+07 -5.999213792332e+07 -5.641257845758e+07 -5.314410364359e+07 -5.015165407558e+07 -4.740499618607e+07 -4.487793080278e+07 -4.254765997730e+07 -4.039426954040e+07 -3.840030189007e+07 -3.655040109763e+07 -3.483101643602e+07 -3.323015364920e+07 -3.173716520694e+07 -3.034257285051e+07 -2.903791681441e+07 -2.781562731914e+07 -2.666891455964e+07 -2.559167422187e+07 -2.457840607566e+07 -2.362414370873e+07 -2.272439369742e+07 -2.187508287098e+07 -2.107251255624e+07 -2.031331914680e+07 -1.959444059037e+07 -1.891308899480e+07 -1.826673026777e+07 -1.765307328087e+07 -1.707003665017e+07 -6.959477566776e+07 -6.517605263292e+07 -6.116745215000e+07 -5.751776525716e+07 -5.418525745086e+07 -5.113418247250e+07 -4.833371449471e+07 -4.575714108929e+07 -4.338121765669e+07 -4.118563985412e+07 -3.915260810471e+07 -3.726646568123e+07 -3.551339641439e+07 -3.388117100787e+07 -3.235893329290e+07 -3.093701932559e+07 -2.960680365158e+07 -2.836056820012e+07 -2.719139009682e+07 -2.609304539206e+07 -2.505992611928e+07 -2.408696862726e+07 -2.316959148465e+07 -2.230364168735e+07 -2.148534807739e+07 -2.071128117570e+07 -1.997831899984e+07 -1.928361904799e+07 -1.862459754028e+07 -1.799891841988e+07 -1.740445949802e+07 -6.825752807279e+07 -6.392371058233e+07 -5.999213505420e+07 -5.641257653311e+07 -5.314410246328e+07 -5.015165344713e+07 -4.740499595581e+07 -4.487793086560e+07 -4.254766026806e+07 -4.039427000251e+07 -3.840030249130e+07 -3.655040182258e+07 -3.483101730863e+07 -3.323015468484e+07 -3.173716640902e+07 -3.034257419173e+07 -2.903791828235e+07 -2.781562891011e+07 -2.666891627313e+07 -2.559167602897e+07 -2.457840794297e+07 -2.362414560496e+07 -2.272439562263e+07 -2.187508483430e+07 -2.107251457531e+07 -2.031332123349e+07 -1.959444277223e+07 -1.891309130493e+07 -1.826673274781e+07 -1.765307597928e+07 -1.707003951743e+07 -6.429718070464e+07 -6.021481557469e+07 -5.651135365865e+07 -5.313948417238e+07 -5.006064959320e+07 -4.724182477509e+07 -4.465453039874e+07 -4.227408742993e+07 -4.007902070867e+07 -3.805057154026e+07 -3.617229529487e+07 -3.442972704407e+07 -3.281010231001e+07 -3.130212273720e+07 -2.989575856853e+07 -2.858208148877e+07 -2.735312258239e+07 -2.620175126135e+07 -2.512157164781e+07 -2.410683358858e+07 -2.315235598225e+07 -2.225346058483e+07 -2.140591468590e+07 -2.060588144376e+07 -1.984987679831e+07 -1.913473231607e+07 -1.845756361971e+07 -1.781574457493e+07 -1.720688811620e+07 -1.662883605732e+07 -1.607962764532e+07 -5.786592897259e+07 -5.419189896275e+07 -5.085887252617e+07 -4.782427113572e+07 -4.505339397056e+07 -4.251651921240e+07 -4.018801620783e+07 -3.804567446100e+07 -3.607016686281e+07 -3.424461102015e+07 -3.255420715503e+07 -3.098593722087e+07 -2.952831352954e+07 -2.817116783135e+07 -2.690547356363e+07 -2.572319544467e+07 -2.461716167602e+07 -2.358095492199e+07 -2.260881902503e+07 -2.169557894364e+07 -2.083657180974e+07 -2.002758734058e+07 -1.926481622028e+07 -1.854480535049e+07 -1.786441912746e+07 -1.722080604928e+07 -1.661137030013e+07 -1.603374844422e+07 -1.548579215668e+07 -1.496555909150e+07 -1.447128463108e+07 -4.921092317110e+07 -4.608641881142e+07 -4.325191383830e+07 -4.067119828511e+07 -3.831476159648e+07 -3.615732748176e+07 -3.417709887004e+07 -3.235518729659e+07 -3.067515642871e+07 -2.912264900826e+07 -2.768507886807e+07 -2.635137504186e+07 -2.511176803981e+07 -2.395761050664e+07 -2.288122602471e+07 -2.187578115862e+07 -2.093517676473e+07 -2.005395533021e+07 -1.922722168265e+07 -1.845057485696e+07 -1.772004940099e+07 -1.703206471724e+07 -1.638338121864e+07 -1.577106231630e+07 -1.519244143821e+07 -1.464509356353e+07 -1.412681107304e+07 -1.363558400509e+07 -1.316958539119e+07 -1.272716344148e+07 -1.230681743566e+07 -3.866477079963e+07 -3.620986439047e+07 -3.398280885911e+07 -3.195515425865e+07 -3.010371430925e+07 -2.840862958205e+07 -2.685277425117e+07 -2.542130776641e+07 -2.410131619340e+07 -2.288151909749e+07 -2.175202759732e+07 -2.070414331046e+07 -1.973019041804e+07 -1.882337473191e+07 -1.797766490805e+07 -1.718769195023e+07 -1.644866382237e+07 -1.575629260687e+07 -1.510673217910e+07 -1.449652469401e+07 -1.392255451102e+07 -1.338200839766e+07 -1.287234105027e+07 -1.239124519117e+07 -1.193662567530e+07 -1.150657717060e+07 -1.109936518736e+07 -1.071341053188e+07 -1.034727776534e+07 -9.999669080438e+06 -9.669405402883e+06 -2.663275484775e+07 -2.494178649208e+07 -2.340776448577e+07 -2.201109215742e+07 -2.073579850133e+07 -1.956820410515e+07 -1.849651252122e+07 -1.751050142210e+07 -1.660127553823e+07 -1.576106477906e+07 -1.498305757025e+07 -1.426126236874e+07 -1.359039198893e+07 -1.296576650558e+07 -1.238323145955e+07 -1.183908862824e+07 -1.133003720080e+07 -1.085312361526e+07 -1.040569861753e+07 -9.985380401143e+06 -9.590022871362e+06 -9.217688238238e+06 -8.866623269407e+06 -8.535238690585e+06 -8.222091340216e+06 -7.925868789239e+06 -7.645376286904e+06 -7.379526062401e+06 -7.127329374714e+06 -6.887892273617e+06 -6.660402564994e+06 -1.357725844928e+07 -1.271521111403e+07 -1.193317407998e+07 -1.122115698055e+07 -1.057101804956e+07 -9.975783669013e+06 -9.429440088875e+06 -8.926776019937e+06 -8.463256704707e+06 -8.034920995238e+06 -7.638296386721e+06 -7.270328413167e+06 -6.928321683814e+06 -6.609890394022e+06 -6.312916627735e+06 -6.035515049699e+06 -5.776002916082e+06 -5.532874509688e+06 -5.304779248649e+06 -5.090502899138e+06 -4.888951399710e+06 -4.699136866291e+06 -4.520165501123e+06 -4.351227099112e+06 -4.191585944632e+06 -4.040572975267e+06 -3.897579113483e+06 -3.762049804609e+06 -3.633480978352e+06 -3.511416904004e+06 -3.395443605649e+06 -2.566470038832e+04 -1.659012122889e+04 -1.399915561857e+04 -1.277533597224e+04 -1.194156735304e+04 -1.125135122560e+04 -1.063686645916e+04 -1.007618906637e+04 -9.559967777697e+03 -9.082691039371e+03 -8.640268127662e+03 -8.229314353788e+03 -7.846898118227e+03 -7.490440333150e+03 -7.157644796725e+03 -6.846463071842e+03 -6.555059207449e+03 -6.281770550560e+03 -6.025070377146e+03 -5.783512574367e+03 -5.555628616487e+03 -5.339752707916e+03 -5.133656094979e+03 -4.933817943766e+03 -4.733955665351e+03 -4.522095304152e+03 -4.274802137909e+03 -3.945937760924e+03 -3.445004918921e+03 -2.595917027089e+03 -1.036014368065e+03 
        </DataArray>
        <DataArray type="Float64" Name="STRESS_YY" format="ascii">
          8.703976878327e+07 8.261455552316e+07 7.859545345974e+07 7.493557009001e+07 7.159365598353e+07 6.853399711446e+07 6.572570210059e+07 6.314197884936e+07 6.075950821255e+07 5.855791993950e+07 5.651935693844e+07 5.462811239329e+07 5.287032644494e+07 5.123373159859e+07 4.970743811950e+07 4.828175245777e+07 4.694802296178e+07 4.569850836472e+07 4.452626516148e+07 4.342505096468e+07 4.238924115333e+07 4.141375692375e+07 4.049400275742e+07 3.962581203916e+07 3.880539927596e+07 3.802931790272e+07 3.729442216846e+07 3.659783174063e+07 3.593689659656e+07 3.530915888592e+07 3.471227547561e+07 8.570252633540e+07 8.136221726005e+07 7.742013898873e+07 7.383038304424e+07 7.055250191383e+07 6.755146843740e+07 6.479698352368e+07 6.226276832140e+07 5.992595029650e+07 5.776654934205e+07 5.576705039650e+07 5.391204749394e+07 5.218794623627e+07 5.058271410367e+07 4.908566996100e+07 4.768730596463e+07 4.637913619966e+07 4.515356768470e+07 4.400378990481e+07 4.292368005634e+07 4.190772128392e+07 4.095093209556e+07 4.004880500531e+07 3.919725320312e+07 3.839256365728e+07 3.763135571122e+07 3.691054359867e+07 3.622730160286e+07 3.557902933351e+07 3.496331381408e+07 3.437785268368e+07 8.174218863317e+07 7.765332869760e+07 7.393936180423e+07 7.055729329245e+07 6.746905047074e+07 6.464164029397e+07 6.204651778071e+07 5.965892417844e+07 5.745730966623e+07 5.542284955763e+07 5.353904165560e+07 5.179137095662e+07 5.016702929394e+07 4.865468006721e+07 4.724425991227e+07 4.592681089838e+07 4.469433795423e+07 4.353968729264e+07 4.245644237108e+07 4.143883453769e+07 4.048166607863e+07 3.958024363868e+07 3.873032047846e+07 3.792804610083e+07 3.716992208714e+07 3.645276290582e+07 3.577366046149e+07 3.512995077801e+07 3.451918051961e+07 3.393906964532e+07 3.338743654959e+07 7.531094755107e+07 7.163041959367e+07 6.828688588770e+07 6.524208371274e+07 6.246179699649e+07 5.991633590713e+07 5.758000405139e+07 5.543051109709e+07 5.344845525461e+07 5.161688812279e+07 4.992095237202e+07 4.834757981090e+07 4.688523902177e+07 4.552372348741e+07 4.425397306504e+07 4.306792285201e+07 4.195837486183e+07 4.091888853235e+07 3.994368707922e+07 3.902757701381e+07 3.816587886300e+07 3.735436718531e+07 3.658921861782e+07 3.586696641763e+07 3.518446067791e+07 3.453883276524e+07 3.392746311765e+07 3.334795041248e+07 3.279808010302e+07 3.227578799980e+07 3.177908859188e+07 6.665595005046e+07 6.352494570362e+07 6.067993199256e+07 5.808901450732e+07 5.572316736909e+07 5.355714617839e+07 5.156908810449e+07 4.974002480667e+07 4.805344526713e+07 4.649492616444e+07 4.505182379046e+07 4.371301704845e+07 4.246869274388e+07 4.131016522069e+07 4.022972444136e+07 3.922050734309e+07 3.827638862165e+07 3.739188754960e+07 3.656208827381e+07 3.578257133681e+07 3.504935466101e+07 3.435884256451e+07 3.370778139932e+07 3.309322095518e+07 3.251248029489e+07 3.196311734362e+07 3.144290074776e+07 3.094978271400e+07 3.048186996078e+07 3.003738885653e+07 2.961461771739e+07 5.610980194992e+07 5.364839507243e+07 5.141083046816e+07 4.937297366594e+07 4.751212300652e+07 4.580845100788e+07 4.424476600499e+07 4.280614760942e+07 4.147960713198e+07 4.025379816401e+07 3.911877423934e+07 3.806578688084e+07 3.708711649995e+07 3.617593064485e+07 3.532616435982e+07 3.453241906103e+07 3.378987651451e+07 3.309422556666e+07 3.244159939965e+07 3.182852168102e+07 3.125186017090e+07 3.070878651936e+07 3.019674137220e+07 2.971340379780e+07 2.925666432983e+07 2.882460055856e+07 2.841545427824e+07 2.802760841345e+07 2.765956122354e+07 2.730989303920e+07 2.697720379233e+07 4.407778531003e+07 4.238031759498e+07 4.083578732174e+07 3.942891334797e+07 3.814420940307e+07 3.696802802461e+07 3.588850699883e+07 3.489534411943e+07 3.397956941778e+07 3.313334677843e+07 3.234980709166e+07 3.162290872216e+07 3.094732076068e+07 3.031832503092e+07 2.973173347032e+07 2.918381825774e+07 2.867125238833e+07 2.819105907288e+07 2.774056835947e+07 2.731737995762e+07 2.691933112570e+07 2.654446894640e+07 2.619102611515e+07 2.585739973038e+07 2.554213228733e+07 2.524389428566e+07 2.496146722550e+07 2.469372550103e+07 2.443961410662e+07 2.419811728449e+07 2.396820169970e+07 3.102228402323e+07 3.015373918358e+07 2.936119537106e+07 2.863897802154e+07 2.797942999012e+07 2.737560958283e+07 2.682143730488e+07 2.631162203827e+07 2.584155433666e+07 2.540720703751e+07 2.500505012301e+07 2.463197905333e+07 2.428525479033e+07 2.396245327474e+07 2.366142300012e+07 2.338024901053e+07 2.311722240903e+07 2.287081425796e+07 2.263965329442e+07 2.242250676285e+07 2.221826394857e+07 2.202592183604e+07 2.184457258091e+07 2.167339231269e+07 2.151163097165e+07 2.135860239457e+07 2.121367379048e+07 2.107625277228e+07 2.094576901874e+07 2.082164497857e+07 2.070324550199e+07 1.744501460418e+07 1.743852084800e+07 1.742801696073e+07 1.741781881141e+07 1.740841129567e+07 1.739982651167e+07 1.739199877704e+07 1.738484831707e+07 1.737830049038e+07 1.737228935345e+07 1.736675739715e+07 1.736165457257e+07 1.735693719817e+07 1.735256707576e+07 1.734851064688e+07 1.734473831914e+07 1.734122392285e+07 1.733794424327e+07 1.733487861952e+07 1.733200856759e+07 1.732931742864e+07 1.732679001217e+07 1.732441221352e+07 1.732217037548e+07 1.732005016371e+07 1.731803448028e+07 1.731609956972e+07 1.731420757348e+07 1.731229224807e+07 1.731023180766e+07 1.730780514932e+07 3.867744690083e+06 4.723302069480e+06 5.494838052609e+06 6.196659035805e+06 6.837391946692e+06 7.424042698483e+06 7.962559495731e+06 8.458073896743e+06 8.915046028793e+06 9.337371091651e+06 9.728464138722e+06 1.009132961698e+07 1.042861926106e+07 1.074268063805e+07 1.103559809371e+07 1.130922743265e+07 1.156522526390e+07 1.180507410874e+07 1.203010385531e+07 1.224151021867e+07 1.244037059346e+07 1.262765772147e+07 1.280425129271e+07 1.297094784787e+07 1.312846872926e+07 1.327746590391e+07 1.341852471401e+07 1.355216187038e+07 1.367881516826e+07 1.379881852095e+07 1.391236501412e+07 -9.187758115288e+06 -7.503278229335e+06 -5.979756170313e+06 -4.593278798210e+06 -3.327390114607e+06 -2.168378482292e+06 -1.104512972438e+06 -1.256509010348e+05 7.770283933751e+05 1.611229036580e+06 2.383705104266e+06 3.100398124502e+06 3.766551678150e+06 4.386807461424e+06 4.965286347674e+06 5.505656984310e+06 6.011194093173e+06 6.484828087672e+06 6.929187561951e+06 7.346635780542e+06 7.739302170996e+06 8.109109383311e+06 8.457796612745e+06 8.786939449206e+06 9.097966642188e+06 9.392173477939e+06 9.670730980381e+06 9.934689065709e+06 1.018497022424e+07 1.042234656276e+07 1.064740933238e+07 -2.121977715898e+07 -1.877135880405e+07 -1.655480296877e+07 -1.453734312514e+07 -1.269530791233e+07 -1.100880565402e+07 -9.460776093360e+06 -8.036458376069e+06 -6.723013139448e+06 -5.509225847464e+06 -4.385265117397e+06 -3.342482657388e+06 -2.373246337016e+06 -1.470800153409e+06 -6.291462960507e+05 1.570546558923e+05 8.925685744778e+05 1.581660194885e+06 2.228155039374e+06 2.835492517293e+06 3.406771590903e+06 3.944790290351e+06 4.452079832542e+06 4.930933889640e+06 5.383433276608e+06 5.811466168575e+06 6.216743223489e+06 6.600805786614e+06 6.965023119264e+06 7.310571283805e+06 7.638408451006e+06 -3.176592861982e+07 -2.864791316821e+07 -2.582390856226e+07 -2.325338823523e+07 -2.090635664748e+07 -1.875750528530e+07 -1.678510261829e+07 -1.497033986522e+07 -1.329685529917e+07 -1.175035764062e+07 -1.031831821892e+07 -8.989716096077e+06 -7.754825467409e+06 -6.605037242832e+06 -5.532708608951e+06 -4.531035686268e+06 -3.593945418817e+06 -2.716003470323e+06 -1.892335350576e+06 -1.118558599247e+06 -3.907243780364e+05 2.947328242589e+05 9.410385455615e+05 1.551115699385e+06 2.127616483181e+06 2.672948806916e+06 3.189296561283e+06 3.678631841928e+06 4.142715312454e+06 4.583076896038e+06 5.000996404459e+06 -4.042093023741e+07 -3.675339119420e+07 -3.343086669495e+07 -3.040646172264e+07 -2.764499055276e+07 -2.511669923272e+07 -2.279602271966e+07 -2.066083021850e+07 -1.869186920675e+07 -1.687232324579e+07 -1.518745010420e+07 -1.362428183760e+07 -1.217137445569e+07 -1.081859794082e+07 -9.556959321566e+06 -8.378452916498e+06 -7.275933105755e+06 -6.243005759060e+06 -5.273935361456e+06 -4.363565331377e+06 -3.507249430872e+06 -2.700792487514e+06 -1.940399227509e+06 -1.222630176092e+06 -5.443640690330e+05 9.723350617714e+04 7.047346249042e+05 1.280464872286e+06 1.826506297860e+06 2.344679389303e+06 2.836527833912e+06 -4.685217569162e+07 -4.277630407360e+07 -3.908334611332e+07 -3.572167465457e+07 -3.265224732321e+07 -2.984200685393e+07 -2.726253959060e+07 -2.488924628564e+07 -2.270072643581e+07 -2.067828731545e+07 -1.880554182613e+07 -1.706807517162e+07 -1.545316664060e+07 -1.394955616181e+07 -1.254724757264e+07 -1.123734214506e+07 -1.001189715223e+07 -8.863805250890e+06 -7.786691218429e+06 -6.774823322834e+06 -5.823037020220e+06 -4.926669164436e+06 -4.081501114583e+06 -3.283709674332e+06 -2.529825103541e+06 -1.816696030176e+06 -1.141461804098e+06 -5.015341861650e+05 1.054075735700e+05 6.813998048190e+05 1.228182295076e+06 -5.081251642278e+07 -4.648519499631e+07 -4.256412561503e+07 -3.899476665605e+07 -3.573570089123e+07 -3.275183702125e+07 -3.001300726472e+07 -2.749309226204e+07 -2.516936874318e+07 -2.302198859331e+07 -2.103355187699e+07 -1.918875286852e+07 -1.747408459028e+07 -1.587759102378e+07 -1.438865824264e+07 -1.299783764238e+07 -1.169669568196e+07 -1.047768578957e+07 -9.334038748171e+06 -8.259668650248e+06 -7.249091866209e+06 -6.297357117298e+06 -5.399985017421e+06 -4.552916012363e+06 -3.752465759127e+06 -2.995287772621e+06 -2.278343772281e+06 -1.598883748617e+06 -9.544398686952e+05 -3.428428640484e+05 2.377678997283e+05 -5.214975986775e+07 -4.773753527307e+07 -4.373944171421e+07 -4.009995501567e+07 -3.677685604655e+07 -3.373436659836e+07 -3.094172659360e+07 -2.837230345470e+07 -2.600292727225e+07 -2.381335974693e+07 -2.178585886193e+07 -1.990481805964e+07 -1.815646495805e+07 -1.652860859962e+07 -1.501042641659e+07 -1.359228406142e+07 -1.226558226233e+07 -1.102262621236e+07 -9.856513738896e+06 -8.761039324670e+06 -7.730611522737e+06 -6.760181717745e+06 -5.845182533615e+06 -4.981474629937e+06 -4.165301172956e+06 -3.393249708301e+06 -2.662221947853e+06 -1.969413277718e+06 -1.312306295103e+06 -6.886868964009e+05 -9.665395348997e+04 
        </DataArray>
        <DataArray type="Float64" Name="STRESS_ZZ" format="ascii">
          1.046700280389e+07 1.046310682468e+07 1.045680452512e+07 1.045068570095e+07 1.044504129596e+07 1.043989059012e+07 1.043519420500e+07 1.043090427272e+07 1.042697600110e+07 1.042336980354e+07 1.042005116347e+07 1.041699001560e+07 1.041416011781e+07 1.041153850597e+07 1.040910501955e+07 1.040684191434e+07 1.040473349257e+07 1.040276583905e+07 1.040092655282e+07 1.039920456936e+07 1.039758992065e+07 1.039607355550e+07 1.039464702459e+07 1.039330213925e+07 1.039203027544e+07 1.039082119487e+07 1.038966065613e+07 1.038852596031e+07 1.038737732790e+07 1.038614164450e+07 1.038468641894e+07 1.046700325667e+07 1.046310724256e+07 1.045680488113e+07 1.045068602432e+07 1.044504159715e+07 1.043989085807e+07 1.043519442119e+07 1.043090444397e+07 1.042697615073e+07 1.042336994251e+07 1.042005127753e+07 1.041699008608e+07 1.041416013664e+07 1.041153849250e+07 1.040910499270e+07 1.040684188115e+07 1.040473344087e+07 1.040276576833e+07 1.040092646444e+07 1.039920447871e+07 1.039758982706e+07 1.039607345504e+07 1.039464690210e+07 1.039330200513e+07 1.039203014079e+07 1.039082107126e+07 1.038966052514e+07 1.038852580654e+07 1.038737713799e+07 1.038614142063e+07 1.038468615573e+07 1.046700467858e+07 1.046310842836e+07 1.045680592603e+07 1.045068693175e+07 1.044504236112e+07 1.043989151532e+07 1.043519499312e+07 1.043090494801e+07 1.042697656024e+07 1.042337025267e+07 1.042005149590e+07 1.041699024068e+07 1.041416024625e+07 1.041153855479e+07 1.040910500527e+07 1.040684184204e+07 1.040473337256e+07 1.040276566636e+07 1.040092632768e+07 1.039920427318e+07 1.039758955513e+07 1.039607310949e+07 1.039464651007e+07 1.039330156031e+07 1.039202965268e+07 1.039082053212e+07 1.038965996077e+07 1.038852522452e+07 1.038737655220e+07 1.038614082918e+07 1.038468552895e+07 1.046700664270e+07 1.046311004503e+07 1.045680734239e+07 1.045068818996e+07 1.044504349822e+07 1.043989250760e+07 1.043519583692e+07 1.043090562935e+07 1.042697710645e+07 1.042337066294e+07 1.042005177578e+07 1.041699038486e+07 1.041416028235e+07 1.041153850894e+07 1.040910490332e+07 1.040684168424e+07 1.040473315414e+07 1.040276538880e+07 1.040092601365e+07 1.039920393836e+07 1.039758919995e+07 1.039607270953e+07 1.039464606292e+07 1.039330105659e+07 1.039202910727e+07 1.039081992763e+07 1.038965929754e+07 1.038852448341e+07 1.038737575643e+07 1.038613998838e+07 1.038468460834e+07 1.046700854531e+07 1.046311167472e+07 1.045680880040e+07 1.045068947997e+07 1.044504464812e+07 1.043989351886e+07 1.043519671028e+07 1.043090633933e+07 1.042697765318e+07 1.042337104265e+07 1.042005201361e+07 1.041699049075e+07 1.041416026861e+07 1.041153838396e+07 1.040910469332e+07 1.040684142032e+07 1.040473285778e+07 1.040276507264e+07 1.040092566778e+07 1.039920356640e+07 1.039758878586e+07 1.039607226501e+07 1.039464554942e+07 1.039330048553e+07 1.039202846035e+07 1.039081924333e+07 1.038965856364e+07 1.038852372550e+07 1.038737494770e+07 1.038613914495e+07 1.038468367030e+07 1.046701006446e+07 1.046311296697e+07 1.045680992508e+07 1.045069047307e+07 1.044504548835e+07 1.043989425032e+07 1.043519731773e+07 1.043090685126e+07 1.042697802773e+07 1.042337130029e+07 1.042005214345e+07 1.041699052811e+07 1.041416020726e+07 1.041153823674e+07 1.040910445102e+07 1.040684110911e+07 1.040473251077e+07 1.040276471986e+07 1.040092531610e+07 1.039920319934e+07 1.039758841112e+07 1.039607188400e+07 1.039464519270e+07 1.039330012682e+07 1.039202808311e+07 1.039081880974e+07 1.038965809103e+07 1.038852320355e+07 1.038737436816e+07 1.038613847280e+07 1.038468288196e+07 1.046701085847e+07 1.046311361098e+07 1.045681047296e+07 1.045069092611e+07 1.044504587893e+07 1.043989455797e+07 1.043519756269e+07 1.043090701878e+07 1.042697814274e+07 1.042337134889e+07 1.042005212378e+07 1.041699042355e+07 1.041416003014e+07 1.041153800590e+07 1.040910419247e+07 1.040684083665e+07 1.040473221882e+07 1.040276441551e+07 1.040092502125e+07 1.039920295193e+07 1.039758820905e+07 1.039607171542e+07 1.039464502292e+07 1.039329996374e+07 1.039202792744e+07 1.039081866118e+07 1.038965790313e+07 1.038852295450e+07 1.038737406447e+07 1.038613815435e+07 1.038468251943e+07 1.046701073246e+07 1.046311347573e+07 1.045681031156e+07 1.045069075561e+07 1.044504570165e+07 1.043989437813e+07 1.043519738010e+07 1.043090683997e+07 1.042697796728e+07 1.042337115649e+07 1.042005190950e+07 1.041699018324e+07 1.041415978755e+07 1.041153776621e+07 1.040910396680e+07 1.040684061853e+07 1.040473203424e+07 1.040276428223e+07 1.040092495169e+07 1.039920293104e+07 1.039758823817e+07 1.039607179271e+07 1.039464516254e+07 1.039330014473e+07 1.039202813294e+07 1.039081886919e+07 1.038965812610e+07 1.038852318858e+07 1.038737429101e+07 1.038613833673e+07 1.038468267205e+07 1.046700972617e+07 1.046311253309e+07 1.045680942555e+07 1.045068992417e+07 1.044504493077e+07 1.043989368364e+07 1.043519676117e+07 1.043090629183e+07 1.042697748059e+07 1.042337075199e+07 1.042005158257e+07 1.041698992503e+07 1.041415956145e+07 1.041153756470e+07 1.040910379479e+07 1.040684049059e+07 1.040473194347e+07 1.040276422139e+07 1.040092493348e+07 1.039920299312e+07 1.039758840921e+07 1.039607207371e+07 1.039464553249e+07 1.039330059719e+07 1.039202866399e+07 1.039081946976e+07 1.038965875878e+07 1.038852382032e+07 1.038737491209e+07 1.038613896063e+07 1.038468333234e+07 1.046700779700e+07 1.046311077713e+07 1.045680782741e+07 1.045068846723e+07 1.044504360042e+07 1.043989247456e+07 1.043519568960e+07 1.043090536859e+07 1.042697670571e+07 1.042337010342e+07 1.042005105435e+07 1.041698952097e+07 1.041415928822e+07 1.041153740478e+07 1.040910371644e+07 1.040684048838e+07 1.040473203005e+07 1.040276441460e+07 1.040092522078e+07 1.039920334938e+07 1.039758881287e+07 1.039607254185e+07 1.039464608181e+07 1.039330123040e+07 1.039202936476e+07 1.039082023391e+07 1.038965959914e+07 1.038852475288e+07 1.038737592373e+07 1.038614001112e+07 1.038468447068e+07 1.046700496389e+07 1.046310833360e+07 1.045680562698e+07 1.045068650355e+07 1.044504186109e+07 1.043989094076e+07 1.043519433871e+07 1.043090419768e+07 1.042697572258e+07 1.042336931401e+07 1.042005044655e+07 1.041698907140e+07 1.041415898441e+07 1.041153723841e+07 1.040910368202e+07 1.040684055622e+07 1.040473217830e+07 1.040276463270e+07 1.040092551897e+07 1.039920372775e+07 1.039758927118e+07 1.039607306441e+07 1.039464667979e+07 1.039330191920e+07 1.039203015808e+07 1.039082112671e+07 1.038966058876e+07 1.038852583062e+07 1.038737709513e+07 1.038614127551e+07 1.038468584337e+07 1.046700183463e+07 1.046310558885e+07 1.045680317362e+07 1.045068430338e+07 1.044503989911e+07 1.043988921243e+07 1.043519283481e+07 1.043090289910e+07 1.042697461397e+07 1.042336840336e+07 1.042004974999e+07 1.041698858774e+07 1.041415868543e+07 1.041153709909e+07 1.040910368768e+07 1.040684070009e+07 1.040473243133e+07 1.040276495705e+07 1.040092589138e+07 1.039920416221e+07 1.039758978250e+07 1.039607365274e+07 1.039464732511e+07 1.039330262488e+07 1.039203095330e+07 1.039082203937e+07 1.038966161024e+07 1.038852695145e+07 1.038737832768e+07 1.038614266166e+07 1.038468742690e+07 1.046699873789e+07 1.046310285415e+07 1.045680074333e+07 1.045068215566e+07 1.044503799528e+07 1.043988751991e+07 1.043519134237e+07 1.043090161018e+07 1.042697353329e+07 1.042336751018e+07 1.042004902242e+07 1.041698802880e+07 1.041415831113e+07 1.041153690437e+07 1.040910363944e+07 1.040684076552e+07 1.040473260863e+07 1.040276525497e+07 1.040092629062e+07 1.039920461093e+07 1.039759024521e+07 1.039607413994e+07 1.039464787365e+07 1.039330324971e+07 1.039203164411e+07 1.039082279609e+07 1.038966247571e+07 1.038852797191e+07 1.038737950827e+07 1.038614396397e+07 1.038468882121e+07 1.046699593650e+07 1.046310039632e+07 1.045679855300e+07 1.045068020343e+07 1.044503626864e+07 1.043988600626e+07 1.043519001975e+07 1.043090045952e+07 1.042697254764e+07 1.042336670445e+07 1.042004840361e+07 1.041698757587e+07 1.041415799168e+07 1.041153670581e+07 1.040910357147e+07 1.040684083520e+07 1.040473278853e+07 1.040276550125e+07 1.040092658324e+07 1.039920496254e+07 1.039759066475e+07 1.039607461509e+07 1.039464837787e+07 1.039330377980e+07 1.039203222395e+07 1.039082345776e+07 1.038966323005e+07 1.038852882448e+07 1.038738048035e+07 1.038614509329e+07 1.038469012146e+07 1.046699378971e+07 1.046309843266e+07 1.045679677410e+07 1.045067860121e+07 1.044503483238e+07 1.043988472930e+07 1.043518890157e+07 1.043089949598e+07 1.042697173316e+07 1.042336602988e+07 1.042004786410e+07 1.041698717390e+07 1.041415772548e+07 1.041153656455e+07 1.040910353839e+07 1.040684088923e+07 1.040473291529e+07 1.040276568369e+07 1.040092680163e+07 1.039920519882e+07 1.039759092471e+07 1.039607491419e+07 1.039464873301e+07 1.039330418948e+07 1.039203268149e+07 1.039082396541e+07 1.038966381156e+07 1.038852949671e+07 1.038738124203e+07 1.038614593382e+07 1.038469100847e+07 1.046699229473e+07 1.046309691143e+07 1.045679538631e+07 1.045067739716e+07 1.044503380750e+07 1.043988385112e+07 1.043518814131e+07 1.043089884324e+07 1.042697119126e+07 1.042336559645e+07 1.042004752647e+07 1.041698691088e+07 1.041415753207e+07 1.041153644499e+07 1.040910349699e+07 1.040684091547e+07 1.040473299088e+07 1.040276579596e+07 1.040092695098e+07 1.039920538752e+07 1.039759114566e+07 1.039607515741e+07 1.039464900069e+07 1.039330449425e+07 1.039203303996e+07 1.039082438219e+07 1.038966428303e+07 1.038853002234e+07 1.038738183202e+07 1.038614658484e+07 1.038469171957e+07 1.046698971345e+07 1.046309555064e+07 1.045679456395e+07 1.045067681802e+07 1.044503336042e+07 1.043988349794e+07 1.043518786340e+07 1.043089861936e+07 1.042697100415e+07 1.042336543744e+07 1.042004740360e+07 1.041698683104e+07 1.041415748597e+07 1.041153641414e+07 1.040910347543e+07 1.040684091449e+07 1.040473302413e+07 1.040276586308e+07 1.040092703236e+07 1.039920546757e+07 1.039759122503e+07 1.039607524835e+07 1.039464910170e+07 1.039330460050e+07 1.039203315338e+07 1.039082452784e+07 1.038966449264e+07 1.038853033353e+07 1.038738227770e+07 1.038614722216e+07 1.038469259058e+07 
        </DataArray>
        <DataArray type="Float64" Name="STRAIN_XX" format="ascii">
          -3.876275757768e-04 -3.602896737076e-04 -3.355005512927e-04 -3.129325134482e-04 -2.923260040358e-04 -2.734596577403e-04 -2.561428109950e-04 -2.402102994139e-04 -2.255184133633e-04 -2.119416230981e-04 -1.993698832894e-04 -1.877063955427e-04 -1.768657397829e-04 -1.667723060797e-04 -1.573589729971e-04 -1.485659891504e-04 -1.403400234421e-04 -1.326333547413e-04 -1.254031785700e-04 -1.186110113985e-04 -1.122221781271e-04 -1.062053692819e-04 -1.005322584606e-04 -9.517717061206e-05 -9.011679630108e-05 -8.532994753537e-05 -8.079735632730e-05 -7.650151992010e-05 -7.242660800424e-05 -6.855846141288e-05 -6.488448879768e-05 -3.793494017021e-04 -3.525370974712e-04 -3.282247899011e-04 -3.060908746844e-04 -2.858807602061e-04 -2.673773334880e-04 -2.503935976341e-04 -2.347675651005e-04 -2.203582907694e-04 -2.070426602495e-04 -1.947127459060e-04 -1.832736118143e-04 -1.726414810762e-04 -1.627421979723e-04 -1.535099324036e-04 -1.448860827677e-04 -1.368183442329e-04 -1.292599134580e-04 -1.221688092101e-04 -1.155072880372e-04 -1.092413421921e-04 -1.033402646536e-04 -9.777627414541e-05 -9.252418927858e-05 -8.756114917811e-05 -8.286637384965e-05 -7.842096707310e-05 -7.420776414545e-05 -7.021124197615e-05 -6.641751896386e-05 -6.281425626866e-05 -3.548330049116e-04 -3.295772940041e-04 -3.066771065231e-04 -2.858288773995e-04 -2.667927164280e-04 -2.493641021541e-04 -2.333668966783e-04 -2.186485226492e-04 -2.050762238097e-04 -1.925340380563e-04 -1.809203076892e-04 -1.701456119693e-04 -1.601310412786e-04 -1.508067482755e-04 -1.421107271586e-04 -1.339877805414e-04 -1.263886417956e-04 -1.192692267895e-04 -1.125899931196e-04 -1.063153901763e-04 -1.004133853254e-04 -9.485505538816e-05 -8.961423273709e-05 -8.466719935622e-05 -7.999242269913e-05 -7.557033093712e-05 -7.138312723297e-05 -6.741464839860e-05 -6.365028158954e-05 -6.007696836700e-05 -5.668311782529e-05 -3.150205317470e-04 -2.922925952469e-04 -2.716855684862e-04 -2.529251808747e-04 -2.357954165913e-04 -2.201122035216e-04 -2.057170375944e-04 -1.924726223041e-04 -1.802594981338e-04 -1.689733184860e-04 -1.585226080814e-04 -1.488269027941e-04 -1.398151962151e-04 -1.314246367771e-04 -1.235994291006e-04 -1.162899044385e-04 -1.094517305690e-04 -1.030452384732e-04 -9.703484584879e-05 -9.138856272181e-05 -8.607756483511e-05 -8.107582597776e-05 -7.635979910617e-05 -7.190814192671e-05 -6.770147899629e-05 -6.372220070314e-05 -5.995429611302e-05 -5.638322826923e-05 -5.299586193382e-05 -4.978047508734e-05 -4.672669138482e-05 -2.614419483087e-04 -2.421158285781e-04 -2.245948804562e-04 -2.086442576362e-04 -1.940800737167e-04 -1.807457763080e-04 -1.685065929270e-04 -1.572457921557e-04 -1.468618093617e-04 -1.372659294495e-04 -1.283803800935e-04 -1.201367508303e-04 -1.124746718361e-04 -1.053407064550e-04 -9.868741684457e-05 -9.247257414788e-05 -8.665848669631e-05 -8.121142743237e-05 -7.610114395397e-05 -7.130043771316e-05 -6.678480194706e-05 -6.253210855562e-05 -5.852233802795e-05 -5.473734493158e-05 -5.116065739820e-05 -4.777730559655e-05 -4.457368251934e-05 -4.153743917858e-05 -3.865742987769e-05 -3.592373066887e-05 -3.332759952074e-05 -1.961562476478e-04 -1.809752583857e-04 -1.672147119169e-04 -1.546877999876e-04 -1.432497869547e-04 -1.327776527823e-04 -1.231655425844e-04 -1.143217830639e-04 -1.061666154959e-04 -9.863037143974e-05 -9.165197623506e-05 -8.517770639599e-05 -7.916015311703e-05 -7.355735168341e-05 -6.833204841117e-05 -6.345107975415e-05 -5.888484533104e-05 -5.460685834799e-05 -5.059336076528e-05 -4.682299276503e-05 -4.327650813541e-05 -3.993652901763e-05 -3.678733348882e-05 -3.381467247197e-05 -3.100561163496e-05 -2.834839842816e-05 -2.583235405828e-05 -2.344779628595e-05 -2.118600320875e-05 -1.903924246097e-05 -1.700076280033e-05 -1.216723236461e-04 -1.112204837468e-04 -1.017501511917e-04 -9.312932480873e-05 -8.525793519639e-05 -7.805122034671e-05 -7.143631662697e-05 -6.535013999182e-05 -5.973780893723e-05 -5.455138596982e-05 -4.974884655725e-05 -4.529322406685e-05 -4.115189633710e-05 -3.729598693153e-05 -3.369986092496e-05 -3.034069776462e-05 -2.719812876706e-05 -2.425392730654e-05 -2.149174429932e-05 -1.889688090823e-05 -1.645609315530e-05 -1.415742266771e-05 -1.199005101671e-05 -9.944173457877e-06 -8.010891715596e-06 -6.182123646548e-06 -4.450532160314e-06 -2.809477092202e-06 -1.253001633530e-06 2.241266588007e-07 1.626387774544e-06 -4.085255559553e-05 -3.553214315369e-05 -3.071696525704e-05 -2.633448953638e-05 -2.233311281978e-05 -1.866958497151e-05 -1.530684020658e-05 -1.221281540563e-05 -9.359622874169e-06 -6.722904638428e-06 -4.281306513095e-06 -2.016043873792e-06 8.946092759956e-08 2.049882382666e-06 3.878248249919e-06 5.586156329463e-06 7.183958914917e-06 8.680919622675e-06 1.008534795581e-05 1.140471475762e-05 1.264575169517e-05 1.381453675103e-05 1.491656811668e-05 1.595682745639e-05 1.693983368300e-05 1.786968630288e-05 1.875009708667e-05 1.958440508609e-05 2.037556646845e-05 2.112610071089e-05 2.183802358396e-05 4.319719293942e-05 4.318109959348e-05 4.315507877085e-05 4.312981737369e-05 4.310651558235e-05 4.308525258028e-05 4.306586554955e-05 4.304815685566e-05 4.303194152519e-05 4.301705613430e-05 4.300335801980e-05 4.299072299165e-05 4.297904275605e-05 4.296822260838e-05 4.295817938061e-05 4.294883971384e-05 4.294013870876e-05 4.293201883478e-05 4.292442901357e-05 4.291732352981e-05 4.291066119378e-05 4.290440448136e-05 4.289851859190e-05 4.289296979369e-05 4.288772254582e-05 4.288273444716e-05 4.287794663961e-05 4.287326544180e-05 4.286852687709e-05 4.286342935218e-05 4.285742578090e-05 1.272469312086e-04 1.218943333347e-04 1.170271155940e-04 1.125941187495e-04 1.085461399552e-04 1.048400872927e-04 1.014385694317e-04 9.830912802678e-05 9.542350557085e-05 9.275701695826e-05 9.028802294221e-05 8.799749068985e-05 8.586862603916e-05 8.388656491285e-05 8.203811310173e-05 8.031152612202e-05 7.869632213368e-05 7.718312245842e-05 7.576351503708e-05 7.442993750242e-05 7.317557600412e-05 7.199427780503e-05 7.088047508392e-05 6.982911839671e-05 6.883561773837e-05 6.789578905289e-05 6.700580312298e-05 6.616213326470e-05 6.536149484087e-05 6.460076487226e-05 6.387683353672e-05 2.080666695572e-04 1.975826522701e-04 1.880602861425e-04 1.793889436433e-04 1.714709561634e-04 1.642217200665e-04 1.575680461505e-04 1.514464550999e-04 1.458016957798e-04 1.405855039918e-04 1.357555700904e-04 1.312746791494e-04 1.271099924021e-04 1.232324440793e-04 1.196162329372e-04 1.162383917822e-04 1.130784219987e-04 1.101179819297e-04 1.073406202079e-04 1.047315466324e-04 1.022774347632e-04 9.996625125596e-05 9.778710793076e-05 9.573013271873e-05 9.378635640313e-05 9.194761220497e-05 9.020644529246e-05 8.855602809905e-05 8.699007570022e-05 8.550275240063e-05 8.408848377525e-05 2.825505517701e-04 2.673373971338e-04 2.535248261240e-04 2.409474053156e-04 2.294627999048e-04 2.189481490219e-04 2.092972723189e-04 2.004181016643e-04 1.922305083031e-04 1.846644972630e-04 1.776587090202e-04 1.711591722417e-04 1.651182615107e-04 1.594938225398e-04 1.542484350992e-04 1.493487892268e-04 1.447651550549e-04 1.404709307128e-04 1.364422554889e-04 1.326576778709e-04 1.290978695495e-04 1.257453779485e-04 1.225844116057e-04 1.196006535187e-04 1.167810982480e-04 1.141139087315e-04 1.115882890183e-04 1.091943693498e-04 1.069230993916e-04 1.047661431973e-04 1.027156549616e-04 3.478362065589e-04 3.284779322680e-04 3.109049685034e-04 2.949038440221e-04 2.802930740988e-04 2.669162651489e-04 2.546383197252e-04 2.433421113127e-04 2.329257060631e-04 2.233000621287e-04 2.143871224727e-04 2.061182283123e-04 1.984327935780e-04 1.912771921854e-04 1.846038201489e-04 1.783703018137e-04 1.725388156697e-04 1.670755196103e-04 1.619500589077e-04 1.571351436453e-04 1.526061846123e-04 1.483409788235e-04 1.443194370199e-04 1.405233465790e-04 1.369361645667e-04 1.335428366626e-04 1.303296379999e-04 1.272840323188e-04 1.243945457249e-04 1.216506510755e-04 1.190425115804e-04 4.014147475366e-04 3.786546654983e-04 3.579956300676e-04 3.391847469358e-04 3.220084019053e-04 3.062826820072e-04 2.918487583911e-04 2.785689397361e-04 2.663233969680e-04 2.550074566175e-04 2.445293585384e-04 2.348083906461e-04 2.257733303198e-04 2.173611364954e-04 2.095158473881e-04 2.021876475789e-04 1.953320753778e-04 1.889093468598e-04 1.828837774875e-04 1.772232856372e-04 1.718989648089e-04 1.668847138073e-04 1.621569162317e-04 1.576941620363e-04 1.534770049320e-04 1.494877504627e-04 1.457102704069e-04 1.421298401601e-04 1.387329965230e-04 1.355074138581e-04 1.324416215128e-04 4.412271883867e-04 4.159393359115e-04 3.929871436290e-04 3.720884228950e-04 3.530056849765e-04 3.355345678841e-04 3.194986085835e-04 3.047448348054e-04 2.911401204309e-04 2.785681768288e-04 2.669270614051e-04 2.561271054791e-04 2.460891828575e-04 2.367432567754e-04 2.280271551312e-04 2.198855340598e-04 2.122689974966e-04 2.051333463493e-04 1.984389359471e-04 1.921501242354e-04 1.862347964980e-04 1.806639546992e-04 1.754113616147e-04 1.704532315145e-04 1.657679608022e-04 1.613358930205e-04 1.571391138431e-04 1.531612726128e-04 1.493874281993e-04 1.458039186650e-04 1.423980590893e-04 4.657435617950e-04 4.388991148883e-04 4.145348062128e-04 3.923504036076e-04 3.720937160699e-04 3.535477895684e-04 3.365253022513e-04 3.208638718975e-04 3.064221840300e-04 2.930767975263e-04 2.807194997002e-04 2.692551064702e-04 2.585996245142e-04 2.486787089558e-04 2.394263634426e-04 2.307838398985e-04 2.226987037724e-04 2.151240370200e-04 2.080177561458e-04 2.013420266070e-04 1.950627582598e-04 1.891491693491e-04 1.835734086893e-04 1.783102275332e-04 1.733366938480e-04 1.686319431606e-04 1.641769614086e-04 1.599543965443e-04 1.559483970783e-04 1.521444779235e-04 1.485292060939e-04 4.740216982168e-04 4.466516778980e-04 4.218105606625e-04 3.991920374684e-04 3.785389558117e-04 3.596301104204e-04 3.422745131302e-04 3.263066046183e-04 3.115823055548e-04 2.979757595139e-04 2.853766364037e-04 2.736878898334e-04 2.628238832678e-04 2.527088173130e-04 2.432754042081e-04 2.344637462880e-04 2.262203830837e-04 2.184974787020e-04 2.112521263113e-04 2.044457509859e-04 1.980435953753e-04 1.920142753320e-04 1.863293947723e-04 1.809632109862e-04 1.758923432861e-04 1.710955191519e-04 1.665533531424e-04 1.622481552671e-04 1.581637671079e-04 1.542854263772e-04 1.505994491951e-04 
        </DataArray>
        <DataArray type="Float64" Name="STRAIN_XY" format="ascii">
          -3.177737166519e-07 -2.054126762236e-07 -1.733334610182e-07 -1.581811207933e-07 -1.478578070727e-07 -1.393116548626e-07 -1.317031557166e-07 -1.247609021231e-07 -1.183691324920e-07 -1.124594598322e-07 -1.069812567887e-07 -1.018926769639e-07 -9.715751583479e-08 -9.274380054968e-08 -8.862311883895e-08 -8.477007472576e-08 -8.116191658197e-08 -7.777805879697e-08 -7.459962167090e-08 -7.160861824725e-08 -6.878689261926e-08 -6.611380704302e-08 -6.356183285158e-08 -6.108738985131e-08 -5.861267821933e-08 -5.598939831184e-08 -5.292740228707e-08 -4.885544275024e-08 -4.265320193825e-08 -3.214080554199e-08 -1.282918274656e-08 -1.680994753504e-04 -1.574264912046e-04 -1.477441135294e-04 -1.389286537063e-04 -1.308793069432e-04 -1.235097322210e-04 -1.167454730368e-04 -1.105220084505e-04 -1.047831935749e-04 -9.947998552754e-05 -9.456939129960e-05 -9.001359386077e-05 -8.577922181153e-05 -8.183673668850e-05 -7.815991655982e-05 -7.472541911589e-05 -7.151241033349e-05 -6.850224798363e-05 -6.567821050539e-05 -6.302526449920e-05 -6.052986423582e-05 -5.817977888254e-05 -5.596394233242e-05 -5.387232344965e-05 -5.189581336284e-05 -5.002612844956e-05 -4.825572777537e-05 -4.657774575263e-05 -4.498594166269e-05 -4.347467308942e-05 -4.203881326866e-05 -3.297389932614e-04 -3.088031770069e-04 -2.898105058242e-04 -2.725183562708e-04 -2.567289924268e-04 -2.422730498473e-04 -2.290044769081e-04 -2.167967110620e-04 -2.055396204445e-04 -1.951370037792e-04 -1.855045271314e-04 -1.765680092952e-04 -1.682619897910e-04 -1.605285269620e-04 -1.533161848343e-04 -1.465791757364e-04 -1.402766323112e-04 -1.343719863611e-04 -1.288324375201e-04 -1.236284967904e-04 -1.187335934549e-04 -1.141237354956e-04 -1.097772159169e-04 -1.056743578602e-04 -1.017972938412e-04 -9.812977505866e-05 -9.465700954544e-05 -9.136552953223e-05 -8.824309331856e-05 -8.527863310381e-05 -8.246209310945e-05 -4.787068425298e-04 -4.483127342259e-04 -4.207396399986e-04 -3.956353230740e-04 -3.727127148284e-04 -3.517259361592e-04 -3.324629523855e-04 -3.147400227737e-04 -2.983972601149e-04 -2.832950018315e-04 -2.693108140500e-04 -2.563370021912e-04 -2.442785320300e-04 -2.330512849956e-04 -2.225805875536e-04 -2.127999666807e-04 -2.036500921181e-04 -1.950778751042e-04 -1.870356967557e-04 -1.794807457121e-04 -1.723744473260e-04 -1.656819708972e-04 -1.593718027242e-04 -1.534153765020e-04 -1.477867523712e-04 -1.424623407465e-04 -1.374206668598e-04 -1.326421787663e-04 -1.281091042005e-04 -1.238053750593e-04 -1.197163927702e-04 -6.092782679063e-04 -5.705938896070e-04 -5.354999861210e-04 -5.035482436234e-04 -4.743732918294e-04 -4.476621856027e-04 -4.231450557209e-04 -4.005880444356e-04 -3.797876532378e-04 -3.605661250096e-04 -3.427676305957e-04 -3.262551010417e-04 -3.109075806359e-04 -2.966180064691e-04 -2.832913368584e-04 -2.708429675939e-04 -2.591973859227e-04 -2.482870228619e-04 -2.380512709984e-04 -2.284356416547e-04 -2.193910388682e-04 -2.108731317206e-04 -2.028418112832e-04 -1.952607191547e-04 -1.880968400225e-04 -1.813201496987e-04 -1.749033163593e-04 -1.688214549477e-04 -1.630519457898e-04 -1.575743377164e-04 -1.523700516211e-04 -7.164354748995e-04 -6.709474429740e-04 -6.296813673912e-04 -5.921100853071e-04 -5.578039662398e-04 -5.263950243442e-04 -4.975659268705e-04 -4.710416858430e-04 -4.465830128987e-04 -4.239808871473e-04 -4.030520726591e-04 -3.836353926896e-04 -3.655886186886e-04 -3.487858581750e-04 -3.331153539894e-04 -3.184776214188e-04 -3.047838664747e-04 -2.919546365208e-04 -2.799186654369e-04 -2.686118816922e-04 -2.579765540393e-04 -2.479605545051e-04 -2.385167198765e-04 -2.296022980449e-04 -2.211784674879e-04 -2.132099234243e-04 -2.056645262136e-04 -1.985130141158e-04 -1.917287893815e-04 -1.852878044384e-04 -1.791682123835e-04 -7.960604602900e-04 -7.455168572322e-04 -6.996644437751e-04 -6.579174668014e-04 -6.197985459497e-04 -5.848987974180e-04 -5.528656193516e-04 -5.233934613590e-04 -4.962164397856e-04 -4.711023033954e-04 -4.478474513649e-04 -4.262727938248e-04 -4.062202942626e-04 -3.875500679609e-04 -3.701379368995e-04 -3.538733600551e-04 -3.386576751860e-04 -3.244025989836e-04 -3.110289442980e-04 -2.984655184991e-04 -2.866481748942e-04 -2.755189925088e-04 -2.650255663624e-04 -2.551203920376e-04 -2.457603331177e-04 -2.369061613656e-04 -2.285221659401e-04 -2.205758327162e-04 -2.130376071654e-04 -2.058807685045e-04 -1.990810430264e-04 -8.450932716976e-04 -7.914364666090e-04 -7.427598028602e-04 -6.984414475700e-04 -6.579746165397e-04 -6.209252409358e-04 -5.869190003990e-04 -5.556315242248e-04 -5.267805520999e-04 -5.001195276430e-04 -4.754323091152e-04 -4.525287754945e-04 -4.312411558746e-04 -4.114209499425e-04 -3.929363311336e-04 -3.756699495777e-04 -3.595170653212e-04 -3.443839572846e-04 -3.301865612146e-04 -3.168492998898e-04 -3.043040752224e-04 -2.924893982986e-04 -2.813496362538e-04 -2.708343593550e-04 -2.608977745058e-04 -2.514982370556e-04 -2.425978358807e-04 -2.341620542213e-04 -2.261595176010e-04 -2.185618596679e-04 -2.113433109068e-04 -8.616496035056e-04 -8.069416040266e-04 -7.573113123333e-04 -7.121247127076e-04 -6.708650922487e-04 -6.330898782310e-04 -5.984174175535e-04 -5.665169849150e-04 -5.371007900353e-04 -5.099174458129e-04 -4.847465765345e-04 -4.613943370057e-04 -4.396896698924e-04 -4.194811648593e-04 -4.006344121978e-04 -3.830297630787e-04 -3.665604261625e-04 -3.511308443825e-04 -3.366553059606e-04 -3.230567524731e-04 -3.102657519529e-04 -2.982196115756e-04 -2.868616088575e-04 -2.761403256529e-04 -2.660090714343e-04 -2.564253859849e-04 -2.473506161885e-04 -2.387495691656e-04 -2.305902552606e-04 -2.228437518652e-04 -2.154837842611e-04 -8.450932047107e-04 -7.914364167336e-04 -7.427597673377e-04 -6.984414237433e-04 -6.579746019263e-04 -6.209252331550e-04 -5.869189975481e-04 -5.556315250026e-04 -5.267805556998e-04 -5.001195333644e-04 -4.754323165589e-04 -4.525287844701e-04 -4.312411666782e-04 -4.114209627647e-04 -3.929363460164e-04 -3.756699661834e-04 -3.595170834958e-04 -3.443839769823e-04 -3.301865824292e-04 -3.168493222635e-04 -3.043040983415e-04 -2.924894217757e-04 -2.813496600897e-04 -2.708343836627e-04 -2.608977995038e-04 -2.514982628908e-04 -2.425978628943e-04 -2.341620828230e-04 -2.261595483062e-04 -2.185618930768e-04 -2.113433464063e-04 -7.960603325336e-04 -7.455167642581e-04 -6.996643786309e-04 -6.579174230866e-04 -6.197985187730e-04 -5.848987829297e-04 -5.528656144606e-04 -5.233934634182e-04 -4.962164468692e-04 -4.711023143080e-04 -4.478474655555e-04 -4.262728110218e-04 -4.062203143144e-04 -3.875500910320e-04 -3.701379632294e-04 -3.538733898610e-04 -3.386577081629e-04 -3.244026346643e-04 -3.110289823062e-04 -2.984655587158e-04 -2.866482169231e-04 -2.755190358122e-04 -2.650256103968e-04 -2.551204369227e-04 -2.457603794076e-04 -2.369062096275e-04 -2.285222162440e-04 -2.205758852134e-04 -2.130376623911e-04 -2.058808273764e-04 -1.990811041801e-04 -7.164353110892e-04 -6.709473204912e-04 -6.296812788955e-04 -5.921100235851e-04 -5.578039253498e-04 -5.263949997726e-04 -4.975659149540e-04 -4.710416838028e-04 -4.465830183015e-04 -4.239808983448e-04 -4.030520885861e-04 -3.836354132108e-04 -3.655886436991e-04 -3.487858874358e-04 -3.331153869782e-04 -3.184776578864e-04 -3.047839064650e-04 -2.919546799865e-04 -2.799187117384e-04 -2.686119297784e-04 -2.579766033587e-04 -2.479606051691e-04 -2.385167722511e-04 -2.296023519584e-04 -2.211785225305e-04 -2.132099796577e-04 -2.056645846683e-04 -1.985130759761e-04 -1.917288552732e-04 -1.852878744662e-04 -1.791682859086e-04 -6.092780964040e-04 -5.705937567128e-04 -5.354998856171e-04 -5.035481692442e-04 -4.743732388136e-04 -4.476621497742e-04 -4.231450336290e-04 -4.005880331959e-04 -3.797876510222e-04 -3.605661305784e-04 -3.427676431285e-04 -3.262551195659e-04 -3.109076043024e-04 -2.966180348442e-04 -2.832913698298e-04 -2.708430048210e-04 -2.591974266110e-04 -2.482870659931e-04 -2.380513160709e-04 -2.284356887052e-04 -2.193910878217e-04 -2.108731822134e-04 -2.028418627070e-04 -1.952607715351e-04 -1.880968939969e-04 -1.813202060247e-04 -1.749033751900e-04 -1.688215162535e-04 -1.630520096052e-04 -1.575744045136e-04 -1.523701206320e-04 -4.787066860906e-04 -4.483126067392e-04 -4.207395382556e-04 -3.956352432023e-04 -3.727126533527e-04 -3.517258900635e-04 -3.324629193002e-04 -3.147400009175e-04 -2.983972481088e-04 -2.832949983499e-04 -2.693108178715e-04 -2.563370124153e-04 -2.442785480329e-04 -2.330513062046e-04 -2.225806131473e-04 -2.127999955743e-04 -2.036501235151e-04 -1.950779084660e-04 -1.870357317412e-04 -1.794807819258e-04 -1.723744844222e-04 -1.656820087329e-04 -1.593718415748e-04 -1.534154166526e-04 -1.477867940751e-04 -1.424623840170e-04 -1.374207118435e-04 -1.326422256328e-04 -1.281091532851e-04 -1.238054267102e-04 -1.197164478452e-04 -3.297388695436e-04 -3.088030708543e-04 -2.898104174428e-04 -2.725182838538e-04 -2.567289338260e-04 -2.422730032066e-04 -2.290044407389e-04 -2.167966842736e-04 -2.055396019019e-04 -1.951369925027e-04 -1.855045222983e-04 -1.765680102796e-04 -1.682619960534e-04 -1.605285376882e-04 -1.533161990230e-04 -1.465791925401e-04 -1.402766510575e-04 -1.343720066652e-04 -1.288324590742e-04 -1.236285192522e-04 -1.187336165026e-04 -1.141237591401e-04 -1.097772404784e-04 -1.056743837882e-04 -1.017973213551e-04 -9.812980405724e-05 -9.465703974262e-05 -9.136556077259e-05 -8.824312559169e-05 -8.527866624479e-05 -8.246212699516e-05 -1.680993903245e-04 -1.574264233165e-04 -1.477440600378e-04 -1.389286102353e-04 -1.308792710898e-04 -1.235097025687e-04 -1.167454487194e-04 -1.105219888183e-04 -1.047831782488e-04 -9.947997422676e-05 -9.456938383559e-05 -9.001358987730e-05 -8.577922084722e-05 -8.183673821170e-05 -7.815992015291e-05 -7.472542442484e-05 -7.151241705625e-05 -6.850225583423e-05 -6.567821926898e-05 -6.302527398933e-05 -6.052987447260e-05 -5.817978977313e-05 -5.596395382342e-05 -5.387233551282e-05 -5.189582598115e-05 -5.002614159855e-05 -4.825574140502e-05 -4.657775948564e-05 -4.498595497007e-05 -4.347468547815e-05 -4.203882559375e-05 -3.177534333792e-07 -2.054015009291e-07 -1.733228790870e-07 -1.581708263230e-07 -1.478479767519e-07 -1.393024437456e-07 -1.316945371134e-07 -1.247528170122e-07 -1.183615058191e-07 -1.124523652494e-07 -1.069747482472e-07 -1.018867491421e-07 -9.715207193996e-08 -9.273878507709e-08 -8.861845938802e-08 -8.476573327042e-08 -8.115787590175e-08 -7.777430205455e-08 -7.459610943134e-08 -7.160539377787e-08 -6.878397334698e-08 -6.611122400276e-08 -6.355955165212e-08 -6.108536501805e-08 -5.861087966625e-08 -5.598784662283e-08 -5.292612170744e-08 -4.885446751621e-08 -4.265244185331e-08 -3.213992509729e-08 -1.282684455700e-08 
        </DataArray>
        <DataArray type="Float64" Name="STRAIN_YY" format="ascii">
          4.740218846343e-04 4.466518252763e-04 4.218106838810e-04 3.991921414561e-04 3.785390433040e-04 3.596301832460e-04 3.422745726870e-04 3.263066521411e-04 3.115823422613e-04 2.979757865559e-04 2.853766547974e-04 2.736879004333e-04 2.628238867870e-04 2.527088143829e-04 2.432753953806e-04 2.344637319355e-04 2.262203633808e-04 2.184974537303e-04 2.112520961488e-04 2.044457157806e-04 1.980435552499e-04 1.920142303749e-04 1.863293450127e-04 1.809631565233e-04 1.758922842889e-04 1.710954558105e-04 1.665532855525e-04 1.622480834020e-04 1.581636907107e-04 1.542853448278e-04 1.505993608270e-04 4.657437142969e-04 4.388992524892e-04 4.145349254279e-04 3.923505053614e-04 3.720938019604e-04 3.535478612054e-04 3.365253611107e-04 3.208639192412e-04 3.064222209024e-04 2.930768248543e-04 2.807195183555e-04 2.692551172867e-04 2.585996282358e-04 2.486787061643e-04 2.394263545656e-04 2.307838252787e-04 2.226986837449e-04 2.151240118632e-04 2.080177260594e-04 2.013419916710e-04 1.950627185424e-04 1.891491249175e-04 1.835733596866e-04 1.783101740828e-04 1.733366360545e-04 1.686318811045e-04 1.641768952171e-04 1.599543263582e-04 1.559483231151e-04 1.521444005309e-04 1.485291261254e-04 4.412273292427e-04 4.159394588096e-04 3.929872506745e-04 3.720885155663e-04 3.530057644881e-04 3.355346352964e-04 3.194986648755e-04 3.047448809503e-04 2.911401573228e-04 2.785682052212e-04 2.669270819410e-04 2.561271187178e-04 2.460891893429e-04 2.367432569817e-04 2.280271494243e-04 2.198855227297e-04 2.122689807437e-04 2.051333243531e-04 1.984389088401e-04 1.921500921136e-04 1.862347594312e-04 1.806639127998e-04 1.754113150424e-04 1.704531804890e-04 1.657679055466e-04 1.613358337419e-04 1.571390507187e-04 1.531612058073e-04 1.493873578934e-04 1.458038450523e-04 1.423979825087e-04 4.014148722900e-04 3.786547733963e-04 3.579957243281e-04 3.391848294267e-04 3.220084740369e-04 3.062827448542e-04 2.918488127562e-04 2.785689862289e-04 2.663234361553e-04 2.550074890372e-04 2.445293846434e-04 2.348084107326e-04 2.257733445774e-04 2.173611451048e-04 2.095158505249e-04 2.021876453243e-04 1.953320677143e-04 1.889093337458e-04 1.828837589773e-04 1.772232618956e-04 1.718989360093e-04 1.668846800882e-04 1.621568777208e-04 1.576941189017e-04 1.534769573421e-04 1.494876985185e-04 1.457102141245e-04 1.421297795609e-04 1.387329316694e-04 1.355073448327e-04 1.324415484695e-04 3.478363045557e-04 3.284780201789e-04 3.109050483325e-04 2.949039168360e-04 2.802931406536e-04 2.669163259875e-04 2.546383752975e-04 2.433421619407e-04 2.329257518959e-04 2.233001031349e-04 2.143871586186e-04 2.061182596429e-04 1.984328200850e-04 1.912772137512e-04 1.846038365355e-04 1.783703128553e-04 1.725388213954e-04 1.670755200955e-04 1.619500542278e-04 1.571351338168e-04 1.526061697033e-04 1.483409589969e-04 1.443194124041e-04 1.405233171931e-04 1.369361304043e-04 1.335427977637e-04 1.303295944732e-04 1.272839842145e-04 1.243944929381e-04 1.216505934526e-04 1.190424488629e-04 2.825506164338e-04 2.673374606528e-04 2.535248890762e-04 2.409474673844e-04 2.294628608268e-04 2.189482084992e-04 2.092973299688e-04 2.004181570743e-04 1.922305611216e-04 1.846645472516e-04 1.776587558318e-04 1.711592155169e-04 1.651183008595e-04 1.594938577645e-04 1.542484661021e-04 1.493488158928e-04 1.447651771660e-04 1.404709480992e-04 1.364422681363e-04 1.326576858390e-04 1.290978727986e-04 1.257453763141e-04 1.225844049207e-04 1.196006417727e-04 1.167810815273e-04 1.141138870165e-04 1.115882621113e-04 1.091943370137e-04 1.069230614857e-04 1.047660996968e-04 1.027156056356e-04 2.080666989858e-04 1.975826913295e-04 1.880603328734e-04 1.793889959448e-04 1.714710122923e-04 1.642217786030e-04 1.575681060333e-04 1.514465153849e-04 1.458017555122e-04 1.405855621829e-04 1.357556259916e-04 1.312747323247e-04 1.271100426176e-04 1.232324911072e-04 1.196162764819e-04 1.162384316544e-04 1.130784581922e-04 1.101180145457e-04 1.073406492366e-04 1.047315719400e-04 1.022774561507e-04 9.996626857274e-05 9.778712104713e-05 9.573014141253e-05 9.378636032308e-05 9.194761100868e-05 9.020643866232e-05 8.855601576425e-05 8.699005740378e-05 8.550272794852e-05 8.408845206835e-05 1.272469298952e-04 1.218943496200e-04 1.170271456064e-04 1.125941592653e-04 1.085461884524e-04 1.048401417434e-04 1.014386281058e-04 9.830918932284e-05 9.542356800091e-05 9.275707926343e-05 9.028808417884e-05 8.799755014817e-05 8.586868335055e-05 8.388661981466e-05 8.203816544434e-05 8.031157575999e-05 7.869636898676e-05 7.718316651640e-05 7.576355640737e-05 7.442997610173e-05 7.317561154054e-05 7.199430979200e-05 7.088050306615e-05 6.982914199214e-05 6.883563662061e-05 6.789580277617e-05 6.700581125571e-05 6.616213551811e-05 6.536149117164e-05 6.460075540182e-05 6.387681751868e-05 4.319717305436e-05 4.318109909233e-05 4.315509426540e-05 4.312984549245e-05 4.310655368748e-05 4.308529845925e-05 4.306591724110e-05 4.304821253721e-05 4.303199958443e-05 4.301711515193e-05 4.300341694741e-05 4.299078115145e-05 4.297909965591e-05 4.296827792564e-05 4.295823289387e-05 4.294889131960e-05 4.294018844372e-05 4.293206680210e-05 4.292447519931e-05 4.291736784195e-05 4.291070345364e-05 4.290444438098e-05 4.289855564451e-05 4.289300338945e-05 4.288775214112e-05 4.288275958894e-05 4.287796692489e-05 4.287328037672e-05 4.286853588937e-05 4.286343191019e-05 4.285742077176e-05 -4.085258113806e-05 -3.553214914257e-05 -3.071695574874e-05 -2.633446790884e-05 -2.233308166596e-05 -1.866954623284e-05 -1.530679548585e-05 -1.221276625429e-05 -9.359570857084e-06 -6.722851025253e-06 -4.281252334856e-06 -2.015989881858e-06 8.951411759603e-08 2.049934301198e-06 3.878298525998e-06 5.586204893140e-06 7.184005733362e-06 8.680964773224e-06 1.008539154712e-05 1.140475680992e-05 1.264579197511e-05 1.381457492140e-05 1.491660368654e-05 1.595686001292e-05 1.693986273265e-05 1.786971129049e-05 1.875011737782e-05 1.958442025116e-05 2.037557627563e-05 2.112610506081e-05 2.183802241178e-05 -1.216723428711e-04 -1.112204882467e-04 -1.017501444595e-04 -9.312930901086e-05 -8.525791223053e-05 -7.805119166654e-05 -7.143628335474e-05 -6.535010299204e-05 -5.973776918077e-05 -5.455134457455e-05 -4.974880449985e-05 -4.529318205220e-05 -4.115185475301e-05 -3.729594623848e-05 -3.369982159357e-05 -3.034066020705e-05 -2.719809290793e-05 -2.425389289782e-05 -2.149171116249e-05 -1.889684919699e-05 -1.645606300111e-05 -1.415739421635e-05 -1.199002422456e-05 -9.944148623760e-06 -8.010869384075e-06 -6.182104492415e-06 -4.450516623312e-06 -2.809465687558e-06 -1.252994915028e-06 2.241279686641e-07 1.626383503372e-06 -1.961562509128e-04 -1.809752557655e-04 -1.672147046910e-04 -1.546877888432e-04 -1.432497721661e-04 -1.327776348875e-04 -1.231655219363e-04 -1.143217602749e-04 -1.061665908545e-04 -9.863034536225e-05 -9.165194917903e-05 -8.517767913653e-05 -7.916012632941e-05 -7.355732584883e-05 -6.833202370883e-05 -6.345105646409e-05 -5.888482387572e-05 -5.460683900387e-05 -5.059334336958e-05 -4.682297684950e-05 -4.327649356702e-05 -3.993651605287e-05 -3.678732257306e-05 -3.381466359909e-05 -3.100560466520e-05 -2.834839348590e-05 -2.583235191797e-05 -2.344779768708e-05 -2.118600843304e-05 -1.903925138673e-05 -1.700077461265e-05 -2.614419312620e-04 -2.421158134718e-04 -2.245948671299e-04 -2.086442452769e-04 -1.940800620742e-04 -1.807457649846e-04 -1.685065816612e-04 -1.572457805620e-04 -1.468617975343e-04 -1.372659176002e-04 -1.283803686368e-04 -1.201367398206e-04 -1.124746614862e-04 -1.053406971017e-04 -9.868740915669e-05 -9.247256851105e-05 -8.665848302705e-05 -8.121142544231e-05 -7.610114349311e-05 -7.130043892015e-05 -6.678480481055e-05 -6.253211290658e-05 -5.852234345959e-05 -5.473735150201e-05 -5.116066528194e-05 -4.777731517108e-05 -4.457369375597e-05 -4.153745223320e-05 -3.865744502171e-05 -3.592374851576e-05 -3.332761972274e-05 -3.150204953623e-04 -2.922925669889e-04 -2.716855467730e-04 -2.529251643043e-04 -2.357954041325e-04 -2.201121943365e-04 -2.057170312439e-04 -1.924726184830e-04 -1.802594965748e-04 -1.689733187396e-04 -1.585226098103e-04 -1.488269058929e-04 -1.398152008646e-04 -1.314246430506e-04 -1.235994369569e-04 -1.162899137010e-04 -1.094517412503e-04 -1.030452506591e-04 -9.703485965762e-05 -9.138857800995e-05 -8.607758154431e-05 -8.107584396850e-05 -7.635981850952e-05 -7.190816258406e-05 -6.770150086130e-05 -6.372222350978e-05 -5.995431993661e-05 -5.638325303738e-05 -5.299588779635e-05 -4.978050197703e-05 -4.672671892294e-05 -3.548329539320e-04 -3.295772536102e-04 -3.066770750174e-04 -2.858288534881e-04 -2.667926990584e-04 -2.493640907534e-04 -2.333668906658e-04 -2.186485215053e-04 -2.050762267603e-04 -1.925340445187e-04 -1.809203171300e-04 -1.701456240437e-04 -1.601310555995e-04 -1.508067644965e-04 -1.421107449731e-04 -1.339877997360e-04 -1.263886623228e-04 -1.192692486426e-04 -1.125900163146e-04 -1.063154146578e-04 -1.004134110877e-04 -9.485508239152e-05 -8.961426096129e-05 -8.466722868072e-05 -7.999245295495e-05 -7.557036187743e-05 -7.138315857312e-05 -6.741467994158e-05 -6.365031318570e-05 -6.007699984617e-05 -5.668314917815e-05 -3.793493396798e-04 -3.525370451432e-04 -3.282247490559e-04 -3.060908441389e-04 -2.858807386112e-04 -2.673773196861e-04 -2.503935906088e-04 -2.347675639851e-04 -2.203582948322e-04 -2.070426687937e-04 -1.947127582119e-04 -1.832736272058e-04 -1.726414988526e-04 -1.627422176638e-04 -1.535099536263e-04 -1.448861053581e-04 -1.368183679747e-04 -1.292599383866e-04 -1.221688352805e-04 -1.155073154719e-04 -1.092413710258e-04 -1.033402950339e-04 -9.777630582641e-05 -9.252422218381e-05 -8.756118304196e-05 -8.286640857742e-05 -7.842100224714e-05 -7.420779953448e-05 -7.021127719492e-05 -6.641755373119e-05 -6.281429031330e-05 -3.876274974074e-04 -3.602896193848e-04 -3.355005102934e-04 -3.129324827800e-04 -2.923259820431e-04 -2.734596434533e-04 -2.561428037815e-04 -2.402102985537e-04 -2.255184179015e-04 -2.119416320938e-04 -1.993698959295e-04 -1.877064112280e-04 -1.768657579868e-04 -1.667723262757e-04 -1.573589945697e-04 -1.485660117557e-04 -1.403400470115e-04 -1.326333795146e-04 -1.254032047744e-04 -1.186110391901e-04 -1.122222074862e-04 -1.062054002663e-04 -1.005322910758e-04 -9.517720475983e-05 -9.011683154396e-05 -8.532998336656e-05 -8.079739225070e-05 -7.650155568869e-05 -7.242664354594e-05 -6.855849692445e-05 -6.488452622520e-05 
        </DataArray>
        <DataArray type="Float64" Name="DISPLACEMENT" NumberOfComponents="3" format="ascii">
          4.720992127191e-07 0.000000000000e+00 0.000000000000e+00 4.596729950206e-07 0.000000000000e+00 0.000000000000e+00 4.481136462884e-07 0.000000000000e+00 0.000000000000e+00 4.373415219415e-07 0.000000000000e+00 0.000000000000e+00 4.272869587149e-07 0.000000000000e+00 0.000000000000e+00 4.178884004092e-07 0.000000000000e+00 0.000000000000e+00 4.090911665903e-07 0.000000000000e+00 0.000000000000e+00 4.008464975872e-07 0.000000000000e+00 0.000000000000e+00 3.931107688376e-07 0.000000000000e+00 0.000000000000e+00 3.858448307914e-07 0.000000000000e+00 0.000000000000e+00 3.790134490564e-07 0.000000000000e+00 0.000000000000e+00 3.725848268034e-07 0.000000000000e+00 0.000000000000e+00 3.665301954840e-07 0.000000000000e+00 0.000000000000e+00 3.608234626910e-07 0.000000000000e+00 0.000000000000e+00 3.554409080498e-07 0.000000000000e+00 0.000000000000e+00 3.503609196654e-07 0.000000000000e+00 0.000000000000e+00 3.455637649414e-07 0.000000000000e+00 0.000000000000e+00 3.410313906477e-07 0.000000000000e+00 0.000000000000e+00 3.367472479762e-07 0.000000000000e+00 0.000000000000e+00 3.326961390146e-07 0.000000000000e+00 0.000000000000e+00 3.288640816274e-07 0.000000000000e+00 0.000000000000e+00 3.252381901973e-07 0.000000000000e+00 0.000000000000e+00 3.218065700360e-07 0.000000000000e+00 0.000000000000e+00 3.185582235837e-07 0.000000000000e+00 0.000000000000e+00 3.154829666936e-07 0.000000000000e+00 0.000000000000e+00 3.125713533727e-07 0.000000000000e+00 0.000000000000e+00 3.098146072327e-07 0.000000000000e+00 0.000000000000e+00 3.072045574979e-07 0.000000000000e+00 0.000000000000e+00 3.047335764897e-07 0.000000000000e+00 0.000000000000e+00 3.023945136326e-07 0.000000000000e+00 0.000000000000e+00 3.001806174672e-07 0.000000000000e+00 0.000000000000e+00 4.698259244396e-07 4.627382207448e-08 0.000000000000e+00 4.574595422314e-07 4.505584033782e-08 0.000000000000e+00 4.459558548133e-07 4.392282637580e-08 0.000000000000e+00 4.352356011140e-07 4.286697371582e-08 0.000000000000e+00 4.252294533169e-07 4.188145420531e-08 0.000000000000e+00 4.158761516206e-07 4.096023431605e-08 0.000000000000e+00 4.071212788748e-07 4.009795445465e-08 0.000000000000e+00 3.989163101911e-07 3.928983535891e-08 0.000000000000e+00 3.912178310778e-07 3.853160109225e-08 0.000000000000e+00 3.839868805103e-07 3.781941434683e-08 0.000000000000e+00 3.771883937583e-07 3.714982156683e-08 0.000000000000e+00 3.707907270904e-07 3.651970613170e-08 0.000000000000e+00 3.647652504765e-07 3.592624823688e-08 0.000000000000e+00 3.590859971531e-07 3.536689037965e-08 0.000000000000e+00 3.537293609742e-07 3.483930755769e-08 0.000000000000e+00 3.486738341154e-07 3.434138143651e-08 0.000000000000e+00 3.438997789912e-07 3.387117788639e-08 0.000000000000e+00 3.393892292955e-07 3.342692737916e-08 0.000000000000e+00 3.351257159086e-07 3.300700784677e-08 0.000000000000e+00 3.310941141103e-07 3.260992963061e-08 0.000000000000e+00 3.272805091019e-07 3.223432224786e-08 0.000000000000e+00 3.236720773142e-07 3.187892269128e-08 0.000000000000e+00 3.202569813311e-07 3.154256508536e-08 0.000000000000e+00 3.170242765479e-07 3.122417148317e-08 0.000000000000e+00 3.139638278618e-07 3.092274367162e-08 0.000000000000e+00 3.110662347692e-07 3.063735578779e-08 0.000000000000e+00 3.083227631391e-07 3.036714760737e-08 0.000000000000e+00 3.057252815301e-07 3.011131825986e-08 0.000000000000e+00 3.032661989852e-07 2.986912010716e-08 0.000000000000e+00 3.009383993609e-07 2.963985227138e-08 0.000000000000e+00 2.987351637113e-07 2.942285301110e-08 0.000000000000e+00 4.630279526230e-07 9.210200281280e-08 0.000000000000e+00 4.508405006997e-07 8.967776890476e-08 0.000000000000e+00 4.395032612790e-07 8.742265232621e-08 0.000000000000e+00 4.289381200751e-07 8.532111530725e-08 0.000000000000e+00 4.190767523436e-07 8.335956728333e-08 0.000000000000e+00 4.098587846411e-07 8.152599928171e-08 0.000000000000e+00 4.012305871814e-07 7.980974372032e-08 0.000000000000e+00 3.931443371828e-07 7.820128809980e-08 0.000000000000e+00 3.855572483075e-07 7.669212172894e-08 0.000000000000e+00 3.784309232466e-07 7.527460694027e-08 0.000000000000e+00 3.717308046223e-07 7.394186987000e-08 0.000000000000e+00 3.654257065675e-07 7.268770728698e-08 0.000000000000e+00 3.594874133108e-07 7.150650674820e-08 0.000000000000e+00 3.538903338028e-07 7.039317789508e-08 0.000000000000e+00 3.486112034514e-07 6.934309311795e-08 0.000000000000e+00 3.436288256291e-07 6.835203614319e-08 0.000000000000e+00 3.389238468948e-07 6.741615732435e-08 0.000000000000e+00 3.344785609038e-07 6.653193464731e-08 0.000000000000e+00 3.302767368282e-07 6.569613959658e-08 0.000000000000e+00 3.263034687800e-07 6.490580720680e-08 0.000000000000e+00 3.225450432902e-07 6.415820969460e-08 0.000000000000e+00 3.189888223353e-07 6.345083320433e-08 0.000000000000e+00 3.156231397803e-07 6.278135720630e-08 0.000000000000e+00 3.124372093798e-07 6.214763620418e-08 0.000000000000e+00 3.094210426750e-07 6.154768338742e-08 0.000000000000e+00 3.065653751783e-07 6.097965595209e-08 0.000000000000e+00 3.038615991396e-07 6.044184171990e-08 0.000000000000e+00 3.013017007819e-07 5.993264666433e-08 0.000000000000e+00 2.988781989885e-07 5.945058271179e-08 0.000000000000e+00 2.965840805796e-07 5.899425486867e-08 0.000000000000e+00 2.944127238152e-07 5.856234601170e-08 0.000000000000e+00 4.517707662573e-07 1.370431927335e-07 0.000000000000e+00 4.398796164287e-07 1.334360528011e-07 0.000000000000e+00 4.288180088259e-07 1.300805512292e-07 0.000000000000e+00 4.185097282449e-07 1.269535685261e-07 0.000000000000e+00 4.088881110246e-07 1.240348825772e-07 0.000000000000e+00 3.998942514897e-07 1.213066246057e-07 0.000000000000e+00 3.914758236720e-07 1.187529217558e-07 0.000000000000e+00 3.835861674405e-07 1.163596198752e-07 0.000000000000e+00 3.761835366745e-07 1.141140554569e-07 0.000000000000e+00 3.692304675791e-07 1.120048640211e-07 0.000000000000e+00 3.626932429289e-07 1.100218175985e-07 0.000000000000e+00 3.565414350423e-07 1.081556860872e-07 0.000000000000e+00 3.507475141334e-07 1.063981184459e-07 0.000000000000e+00 3.452865113361e-07 1.047415404683e-07 0.000000000000e+00 3.401357276806e-07 1.031790665076e-07 0.000000000000e+00 3.352744818788e-07 1.017044229666e-07 0.000000000000e+00 3.306838910119e-07 1.003118817741e-07 0.000000000000e+00 3.263466792165e-07 9.899620234698e-08 0.000000000000e+00 3.222470102774e-07 9.775258081505e-08 0.000000000000e+00 3.183703407084e-07 9.657660545197e-08 0.000000000000e+00 3.147032904426e-07 9.546421746008e-08 0.000000000000e+00 3.112335287063e-07 9.441167634658e-08 0.000000000000e+00 3.079496729863e-07 9.341552927604e-08 0.000000000000e+00 3.048411992745e-07 9.247258383810e-08 0.000000000000e+00 3.018983619558e-07 9.157988374965e-08 0.000000000000e+00 2.991121217831e-07 9.073468700474e-08 0.000000000000e+00 2.964740802747e-07 8.993444597532e-08 0.000000000000e+00 2.939764184809e-07 8.917678883089e-08 0.000000000000e+00 2.916118371675e-07 8.845950138958e-08 0.000000000000e+00 2.893734936651e-07 8.778050796498e-08 0.000000000000e+00 2.872549272163e-07 8.713784874322e-08 0.000000000000e+00 4.361627793801e-07 1.806645842404e-07 0.000000000000e+00 4.246824501627e-07 1.759092764771e-07 0.000000000000e+00 4.140030039010e-07 1.714857048282e-07 0.000000000000e+00 4.040508584691e-07 1.673633907093e-07 0.000000000000e+00 3.947616533025e-07 1.635156751766e-07 0.000000000000e+00 3.860785178032e-07 1.599190017149e-07 0.000000000000e+00 3.779509337663e-07 1.565524450393e-07 0.000000000000e+00 3.703338530753e-07 1.533973456482e-07 0.000000000000e+00 3.631869718593e-07 1.504370091647e-07 0.000000000000e+00 3.564741206326e-07 1.476564537349e-07 0.000000000000e+00 3.501627470509e-07 1.450421957676e-07 0.000000000000e+00 3.442234746648e-07 1.425820671698e-07 0.000000000000e+00 3.386297248010e-07 1.402650587175e-07 0.000000000000e+00 3.333573912281e-07 1.380811853051e-07 0.000000000000e+00 3.283845591964e-07 1.360213695591e-07 0.000000000000e+00 3.236912619340e-07 1.340773409798e-07 0.000000000000e+00 3.192592689074e-07 1.322415482299e-07 0.000000000000e+00 3.150719011101e-07 1.305070826351e-07 0.000000000000e+00 3.111138694422e-07 1.288676112386e-07 0.000000000000e+00 3.073711328704e-07 1.273173180539e-07 0.000000000000e+00 3.038307735903e-07 1.258508523507e-07 0.000000000000e+00 3.004808868395e-07 1.244632830160e-07 0.000000000000e+00 2.973104833527e-07 1.231500581487e-07 0.000000000000e+00 2.943094027071e-07 1.219069691733e-07 0.000000000000e+00 2.914682359832e-07 1.207301188056e-07 0.000000000000e+00 2.887782562297e-07 1.196158922459e-07 0.000000000000e+00 2.862313551243e-07 1.185609309408e-07 0.000000000000e+00 2.838199838535e-07 1.175621080898e-07 0.000000000000e+00 2.815370953615e-07 1.166165047262e-07 0.000000000000e+00 2.793760833832e-07 1.157213844654e-07 0.000000000000e+00 2.773307103669e-07 1.148741636574e-07 0.000000000000e+00 4.163543064269e-07 2.225460798562e-07 0.000000000000e+00 4.053953600547e-07 2.166884001301e-07 0.000000000000e+00 3.952009243375e-07 2.112393595610e-07 0.000000000000e+00 3.857007588848e-07 2.061614139715e-07 0.000000000000e+00 3.768334260674e-07 2.014217243175e-07 0.000000000000e+00 3.685446380732e-07 1.969912731953e-07 0.000000000000e+00 3.607861709924e-07 1.928442844152e-07 0.000000000000e+00 3.535150225834e-07 1.889577728149e-07 0.000000000000e+00 3.466927193814e-07 1.853111739158e-07 0.000000000000e+00 3.402847345449e-07 1.818860327529e-07 0.000000000000e+00 3.342599941019e-07 1.786657399663e-07 0.000000000000e+00 3.285904557489e-07 1.756353066532e-07 0.000000000000e+00 3.232507478958e-07 1.727811714368e-07 0.000000000000e+00 3.182178591055e-07 1.700910344602e-07 0.000000000000e+00 3.134708698908e-07 1.675537140364e-07 0.000000000000e+00 3.089907202786e-07 1.651590224070e-07 0.000000000000e+00 3.047600076878e-07 1.628976577073e-07 0.000000000000e+00 3.007628106062e-07 1.607611097117e-07 0.000000000000e+00 2.969845342993e-07 1.587415773682e-07 0.000000000000e+00 2.934117754124e-07 1.568318964269e-07 0.000000000000e+00 2.900322028089e-07 1.550254757527e-07 0.000000000000e+00 2.868344523914e-07 1.533162411094e-07 0.000000000000e+00 2.838080339842e-07 1.516985853848e-07 0.000000000000e+00 2.809432486066e-07 1.501673243703e-07 0.000000000000e+00 2.782311146441e-07 1.487176573001e-07 0.000000000000e+00 2.756633014762e-07 1.473451313784e-07 0.000000000000e+00 2.732320690239e-07 1.460456094656e-07 0.000000000000e+00 2.709302113098e-07 1.448152399105e-07 0.000000000000e+00 2.687510013240e-07 1.436504270710e-07 0.000000000000e+00 2.666881328220e-07 1.425478002084e-07 0.000000000000e+00 2.647356515253e-07 1.415041767185e-07 0.000000000000e+00 3.925361146593e-07 2.622843381149e-07 0.000000000000e+00 3.822040922504e-07 2.553806989493e-07 0.000000000000e+00 3.725928454247e-07 2.489586666036e-07 0.000000000000e+00 3.636361520101e-07 2.429739928766e-07 0.000000000000e+00 3.552760890232e-07 2.373879748707e-07 0.000000000000e+00 3.474614742755e-07 2.321664137390e-07 0.000000000000e+00 3.401468425825e-07 2.272789306125e-07 0.000000000000e+00 3.332916517102e-07 2.226984360375e-07 0.000000000000e+00 3.268596291340e-07 2.184006934844e-07 0.000000000000e+00 3.208182231835e-07 2.143639526144e-07 0.000000000000e+00 3.151381375301e-07 2.105686382391e-07 0.000000000000e+00 3.097929340744e-07 2.069970849879e-07 0.000000000000e+00 3.047586926475e-07 2.036333099255e-07 0.000000000000e+00 3.000137182221e-07 2.004628169102e-07 0.000000000000e+00 2.955382880529e-07 1.974724276341e-07 0.000000000000e+00 2.913144325302e-07 1.946501351914e-07 0.000000000000e+00 2.873257446156e-07 1.919849767518e-07 0.000000000000e+00 2.835572136073e-07 1.894669224890e-07 0.000000000000e+00 2.799950796873e-07 1.870867783893e-07 0.000000000000e+00 2.766267062710e-07 1.848361009522e-07 0.000000000000e+00 2.734404676508e-07 1.827071221196e-07 0.000000000000e+00 2.704256498301e-07 1.806926830164e-07 0.000000000000e+00 2.675723627345e-07 1.787861752984e-07 0.000000000000e+00 2.648714622280e-07 1.769814890497e-07 0.000000000000e+00 2.623144805110e-07 1.752729662721e-07 0.000000000000e+00 2.598935635393e-07 1.736553590658e-07 0.000000000000e+00 2.576014140184e-07 1.721237915424e-07 0.000000000000e+00 2.554312381994e-07 1.706737242683e-07 0.000000000000e+00 2.533766939029e-07 1.693009195481e-07 0.000000000000e+00 2.514318356553e-07 1.680014047556e-07 0.000000000000e+00 2.495910498166e-07 1.667714289780e-07 0.000000000000e+00 3.649375868837e-07 2.994966577964e-07 0.000000000000e+00 3.553319918789e-07 2.916135451640e-07 0.000000000000e+00 3.463964958339e-07 2.842803688421e-07 0.000000000000e+00 3.380695325738e-07 2.774466027445e-07 0.000000000000e+00 3.302972515980e-07 2.710680528677e-07 0.000000000000e+00 3.230320692626e-07 2.651056682881e-07 0.000000000000e+00 3.162317169766e-07 2.595247600315e-07 0.000000000000e+00 3.098585029809e-07 2.542943952305e-07 0.000000000000e+00 3.038787050274e-07 2.493868987090e-07 0.000000000000e+00 2.982620601043e-07 2.447774342213e-07 0.000000000000e+00 2.929813316612e-07 2.404436492812e-07 0.000000000000e+00 2.880119404249e-07 2.363653721825e-07 0.000000000000e+00 2.833316480267e-07 2.325243523566e-07 0.000000000000e+00 2.789202847883e-07 2.289040369741e-07 0.000000000000e+00 2.747595146371e-07 2.254893780094e-07 0.000000000000e+00 2.708326313710e-07 2.222666650421e-07 0.000000000000e+00 2.671243815041e-07 2.192233798642e-07 0.000000000000e+00 2.636208097197e-07 2.163480696485e-07 0.000000000000e+00 2.603091236344e-07 2.136302359612e-07 0.000000000000e+00 2.571775751166e-07 2.110602373585e-07 0.000000000000e+00 2.542153558389e-07 2.086292036651e-07 0.000000000000e+00 2.514125050903e-07 2.063289603209e-07 0.000000000000e+00 2.487598281603e-07 2.041519614045e-07 0.000000000000e+00 2.462488238279e-07 2.020912301317e-07 0.000000000000e+00 2.438716196515e-07 2.001403057437e-07 0.000000000000e+00 2.416209137918e-07 1.982931957631e-07 0.000000000000e+00 2.394899220223e-07 1.965443325070e-07 0.000000000000e+00 2.374723282585e-07 1.948885324944e-07 0.000000000000e+00 2.355622362317e-07 1.933209567881e-07 0.000000000000e+00 2.337541184777e-07 1.918370691268e-07 0.000000000000e+00 2.320427560427e-07 1.904325864210e-07 0.000000000000e+00 3.338245122956e-07 3.338246636506e-07 0.000000000000e+00 3.250378521185e-07 3.250379965653e-07 0.000000000000e+00 3.168641608010e-07 3.168642990356e-07 0.000000000000e+00 3.092471210856e-07 3.092472536999e-07 0.000000000000e+00 3.021374735814e-07 3.021376010669e-07 0.000000000000e+00 2.954916914647e-07 2.954918142266e-07 0.000000000000e+00 2.892711098164e-07 2.892712281815e-07 0.000000000000e+00 2.834412503402e-07 2.834413645585e-07 0.000000000000e+00 2.779712658232e-07 2.779713760726e-07 0.000000000000e+00 2.728334733758e-07 2.728335797660e-07 0.000000000000e+00 2.680029585413e-07 2.680030611291e-07 0.000000000000e+00 2.634572375816e-07 2.634573363845e-07 0.000000000000e+00 2.591759680770e-07 2.591760630858e-07 0.000000000000e+00 2.551406999358e-07 2.551407911175e-07 0.000000000000e+00 2.513346603538e-07 2.513347476600e-07 0.000000000000e+00 2.477425674422e-07 2.477426508197e-07 0.000000000000e+00 2.443504681660e-07 2.443505475648e-07 0.000000000000e+00 2.411455969759e-07 2.411456723527e-07 0.000000000000e+00 2.381162521161e-07 2.381163234262e-07 0.000000000000e+00 2.352516870636e-07 2.352517542555e-07 0.000000000000e+00 2.325420149756e-07 2.325420779891e-07 0.000000000000e+00 2.299781243521e-07 2.299781831157e-07 0.000000000000e+00 2.275516043821e-07 2.275516588050e-07 0.000000000000e+00 2.252546786278e-07 2.252547285902e-07 0.000000000000e+00 2.230801458311e-07 2.230801911799e-07 0.000000000000e+00 2.210213266863e-07 2.210213672425e-07 0.000000000000e+00 2.190720153596e-07 2.190720509264e-07 0.000000000000e+00 2.172264342442e-07 2.172264646076e-07 0.000000000000e+00 2.154791897673e-07 2.154792146921e-07 0.000000000000e+00 2.138252257305e-07 2.138252449581e-07 0.000000000000e+00 2.122597681535e-07 2.122597813816e-07 0.000000000000e+00 2.994965270443e-07 3.649377579158e-07 0.000000000000e+00 2.916134221635e-07 3.553321572430e-07 0.000000000000e+00 2.842802527580e-07 3.463966560640e-07 0.000000000000e+00 2.774464928841e-07 3.380696881108e-07 0.000000000000e+00 2.710679486640e-07 3.302974028060e-07 0.000000000000e+00 2.651055692819e-07 3.230322164492e-07 0.000000000000e+00 2.595246658617e-07 3.162318603998e-07 0.000000000000e+00 2.542943056228e-07 3.098586428492e-07 0.000000000000e+00 2.493868134691e-07 3.038788414940e-07 0.000000000000e+00 2.447773532232e-07 2.982621932702e-07 0.000000000000e+00 2.404435724565e-07 2.929814615809e-07 0.000000000000e+00 2.363652995058e-07 2.880120671136e-07 0.000000000000e+00 2.325242838296e-07 2.833317714662e-07 0.000000000000e+00 2.289039726107e-07 2.789204049369e-07 0.000000000000e+00 2.254893178334e-07 2.747596314374e-07 0.000000000000e+00 2.222666090862e-07 2.708327447612e-07 0.000000000000e+00 2.192233281698e-07 2.671244914211e-07 0.000000000000e+00 2.163480222578e-07 2.636209161021e-07 0.000000000000e+00 2.136301929100e-07 2.603092264266e-07 0.000000000000e+00 2.110601986822e-07 2.571776742673e-07 0.000000000000e+00 2.086291694139e-07 2.542154512947e-07 0.000000000000e+00 2.063289305712e-07 2.514125967851e-07 0.000000000000e+00 2.041519362590e-07 2.487599160077e-07 0.000000000000e+00 2.020912097105e-07 2.462489077196e-07 0.000000000000e+00 2.001402901820e-07 2.438716994563e-07 0.000000000000e+00 1.982931852173e-07 2.416209893513e-07 0.000000000000e+00 1.965443271577e-07 2.394899931483e-07 0.000000000000e+00 1.948885325385e-07 2.374723947365e-07 0.000000000000e+00 1.933209624233e-07 2.355622978308e-07 0.000000000000e+00 1.918370805439e-07 2.337541749557e-07 0.000000000000e+00 1.904326038392e-07 2.320428071402e-07 0.000000000000e+00 2.622842285643e-07 3.925363037676e-07 0.000000000000e+00 2.553805973770e-07 3.822042773033e-07 0.000000000000e+00 2.489585721280e-07 3.725930266918e-07 0.000000000000e+00 2.429739047769e-07 3.636363297232e-07 0.000000000000e+00 2.373878925733e-07 3.552762633838e-07 0.000000000000e+00 2.321663367904e-07 3.474616454578e-07 0.000000000000e+00 2.272788586549e-07 3.401470107401e-07 0.000000000000e+00 2.226983687917e-07 3.332918169815e-07 0.000000000000e+00 2.184006307457e-07 3.268597916362e-07 0.000000000000e+00 2.143638942461e-07 3.208183829994e-07 0.000000000000e+00 2.105685841602e-07 3.151382947026e-07 0.000000000000e+00 2.069970351514e-07 3.097930886147e-07 0.000000000000e+00 2.036332643045e-07 3.047588445456e-07 0.000000000000e+00 2.004627754912e-07 3.000138674505e-07 0.000000000000e+00 1.974723904169e-07 2.955384345622e-07 0.000000000000e+00 1.946501021878e-07 2.913145762519e-07 0.000000000000e+00 1.919849479816e-07 2.873258854747e-07 0.000000000000e+00 1.894668979762e-07 2.835573515369e-07 0.000000000000e+00 1.870867581644e-07 2.799952146286e-07 0.000000000000e+00 1.848360850535e-07 2.766268381641e-07 0.000000000000e+00 1.827071105975e-07 2.734405964309e-07 0.000000000000e+00 1.806926759371e-07 2.704257754284e-07 0.000000000000e+00 1.787861727471e-07 2.675724850798e-07 0.000000000000e+00 1.769814911267e-07 2.648715812397e-07 0.000000000000e+00 1.752729730898e-07 2.623145960860e-07 0.000000000000e+00 1.736553707457e-07 2.598936755465e-07 0.000000000000e+00 1.721238082145e-07 2.576015223052e-07 0.000000000000e+00 1.706737460790e-07 2.554313425924e-07 0.000000000000e+00 1.693009466536e-07 2.533767942044e-07 0.000000000000e+00 1.680014373196e-07 2.514319316362e-07 0.000000000000e+00 1.667714672026e-07 2.495911412260e-07 0.000000000000e+00 2.225459912202e-07 4.163545108891e-07 0.000000000000e+00 2.166883189457e-07 4.053955622158e-07 0.000000000000e+00 2.112392850670e-07 3.952011241830e-07 0.000000000000e+00 2.061613455355e-07 3.857009564154e-07 0.000000000000e+00 2.014216614272e-07 3.768336213071e-07 0.000000000000e+00 1.969912154415e-07 3.685448310619e-07 0.000000000000e+00 1.928442314746e-07 3.607863617775e-07 0.000000000000e+00 1.889577244406e-07 3.535152112094e-07 0.000000000000e+00 1.853111299213e-07 3.466929058917e-07 0.000000000000e+00 1.818859929998e-07 3.402849189798e-07 0.000000000000e+00 1.786657043491e-07 3.342601764938e-07 0.000000000000e+00 1.756352750941e-07 3.285906361095e-07 0.000000000000e+00 1.727811438763e-07 3.232509262109e-07 0.000000000000e+00 1.700910108557e-07 3.182180353409e-07 0.000000000000e+00 1.675536943579e-07 3.134710440036e-07 0.000000000000e+00 1.651590066388e-07 3.089908922186e-07 0.000000000000e+00 1.628976458455e-07 3.047601773920e-07 0.000000000000e+00 1.607611017655e-07 3.007629779974e-07 0.000000000000e+00 1.587415733583e-07 2.969846993001e-07 0.000000000000e+00 1.568318963877e-07 2.934119379597e-07 0.000000000000e+00 1.550254797323e-07 2.900323628521e-07 0.000000000000e+00 1.533162491653e-07 2.868346098750e-07 0.000000000000e+00 1.516985975803e-07 2.838081888356e-07 0.000000000000e+00 1.501673407747e-07 2.809434007437e-07 0.000000000000e+00 1.487176779901e-07 2.782312639878e-07 0.000000000000e+00 1.473451564366e-07 2.756634479483e-07 0.000000000000e+00 1.460456389747e-07 2.732322125267e-07 0.000000000000e+00 1.448152739475e-07 2.709303517111e-07 0.000000000000e+00 1.436504657115e-07 2.687511384642e-07 0.000000000000e+00 1.425478435305e-07 2.666882665345e-07 0.000000000000e+00 1.415042248215e-07 2.647357816551e-07 0.000000000000e+00 1.806645154754e-07 4.361629959832e-07 0.000000000000e+00 1.759092141095e-07 4.246826660421e-07 0.000000000000e+00 1.714856482741e-07 4.140032188450e-07 0.000000000000e+00 1.673633394743e-07 4.040510723140e-07 0.000000000000e+00 1.635156288610e-07 3.947618659233e-07 0.000000000000e+00 1.599189599974e-07 3.860787291054e-07 0.000000000000e+00 1.565524076648e-07 3.779511436837e-07 0.000000000000e+00 1.533973124084e-07 3.703340615698e-07 0.000000000000e+00 1.504369798910e-07 3.631871789091e-07 0.000000000000e+00 1.476564282838e-07 3.564743262189e-07 0.000000000000e+00 1.450421740172e-07 3.501629511495e-07 0.000000000000e+00 1.425820490127e-07 3.442236772502e-07 0.000000000000e+00 1.402650440619e-07 3.386299258487e-07 0.000000000000e+00 1.380811740730e-07 3.333575907075e-07 0.000000000000e+00 1.360213616893e-07 3.283847570587e-07 0.000000000000e+00 1.340773364288e-07 3.236914581111e-07 0.000000000000e+00 1.322415469774e-07 3.192594633252e-07 0.000000000000e+00 1.305070846837e-07 3.150720937033e-07 0.000000000000e+00 1.288676166097e-07 3.111140601546e-07 0.000000000000e+00 1.273173267785e-07 3.073713216439e-07 0.000000000000e+00 1.258508644664e-07 3.038309603611e-07 0.000000000000e+00 1.244632985655e-07 3.004810715450e-07 0.000000000000e+00 1.231500771838e-07 2.973106659389e-07 0.000000000000e+00 1.219069917488e-07 2.943095831276e-07 0.000000000000e+00 1.207301449709e-07 2.914684141873e-07 0.000000000000e+00 1.196159220413e-07 2.887784321547e-07 0.000000000000e+00 1.185609644012e-07 2.862315286989e-07 0.000000000000e+00 1.175621452532e-07 2.838201550016e-07 0.000000000000e+00 1.166165456370e-07 2.815372639973e-07 0.000000000000e+00 1.157214291723e-07 2.793762494043e-07 0.000000000000e+00 1.148742122266e-07 2.773308736658e-07 0.000000000000e+00 1.370431425615e-07 4.517709916416e-07 0.000000000000e+00 1.334360075831e-07 4.398798423558e-07 0.000000000000e+00 1.300805106071e-07 4.288182349560e-07 0.000000000000e+00 1.269535321770e-07 4.185099543017e-07 0.000000000000e+00 1.240348502227e-07 4.088883367858e-07 0.000000000000e+00 1.213065960109e-07 3.998944767765e-07 0.000000000000e+00 1.187528967239e-07 3.914760483371e-07 0.000000000000e+00 1.163595982415e-07 3.835863913558e-07 0.000000000000e+00 1.141140370766e-07 3.761837597291e-07 0.000000000000e+00 1.120048487602e-07 3.692306896822e-07 0.000000000000e+00 1.100218053305e-07 3.626934640115e-07 0.000000000000e+00 1.081556766954e-07 3.565416550479e-07 0.000000000000e+00 1.063981118253e-07 3.507477330064e-07 0.000000000000e+00 1.047415365302e-07 3.452867290163e-07 0.000000000000e+00 1.031790651796e-07 3.401359441082e-07 0.000000000000e+00 1.017044241995e-07 3.352746969999e-07 0.000000000000e+00 1.003118855433e-07 3.306841047763e-07 0.000000000000e+00 9.899620865390e-08 3.263468915718e-07 0.000000000000e+00 9.775258967943e-08 3.222472211670e-07 0.000000000000e+00 9.657661690879e-08 3.183705500743e-07 0.000000000000e+00 9.546423155056e-08 3.147034982314e-07 0.000000000000e+00 9.441169311396e-08 3.112337348678e-07 0.000000000000e+00 9.341554875717e-08 3.079498774706e-07 0.000000000000e+00 9.247260606139e-08 3.048414020317e-07 0.000000000000e+00 9.157990873379e-08 3.018985629396e-07 0.000000000000e+00 9.073471476229e-08 2.991123209536e-07 0.000000000000e+00 8.993447651522e-08 2.964742775955e-07 0.000000000000e+00 8.917682216045e-08 2.939766139146e-07 0.000000000000e+00 8.845953751668e-08 2.916120306718e-07 0.000000000000e+00 8.778054689628e-08 2.893736851937e-07 0.000000000000e+00 8.713789047461e-08 2.872551167286e-07 0.000000000000e+00 9.210196979712e-08 4.630281836105e-07 0.000000000000e+00 8.967773934670e-08 4.508407330571e-07 0.000000000000e+00 8.742262600813e-08 4.395034946387e-07 0.000000000000e+00 8.532109200469e-08 4.289383541222e-07 0.000000000000e+00 8.335954680388e-08 4.190769868074e-07 0.000000000000e+00 8.152598146949e-08 4.098590192823e-07 0.000000000000e+00 7.980972844300e-08 4.012308217845e-07 0.000000000000e+00 7.820127523226e-08 3.931445715566e-07 0.000000000000e+00 7.669211114860e-08 3.855574822879e-07 0.000000000000e+00 7.527459853474e-08 3.784311566954e-07 0.000000000000e+00 7.394186354064e-08 3.717310374221e-07 0.000000000000e+00 7.268770294515e-08 3.654259386165e-07 0.000000000000e+00 7.150650430819e-08 3.594876445214e-07 0.000000000000e+00 7.039317727663e-08 3.538905641005e-07 0.000000000000e+00 6.934309425951e-08 3.486114327736e-07 0.000000000000e+00 6.835203900854e-08 3.436290539218e-07 0.000000000000e+00 6.741616190181e-08 3.389240741081e-07 0.000000000000e+00 6.653194093923e-08 3.344787869891e-07 0.000000000000e+00 6.569614761480e-08 3.302769617375e-07 0.000000000000e+00 6.490581697028e-08 3.263036924659e-07 0.000000000000e+00 6.415822123590e-08 3.225452657059e-07 0.000000000000e+00 6.345084656127e-08 3.189890434343e-07 0.000000000000e+00 6.278137241328e-08 3.156233595160e-07 0.000000000000e+00 6.214765327814e-08 3.124374277084e-07 0.000000000000e+00 6.154770233416e-08 3.094212595571e-07 0.000000000000e+00 6.097967677263e-08 3.065655905826e-07 0.000000000000e+00 6.044186442314e-08 3.038618130436e-07 0.000000000000e+00 5.993267126374e-08 3.013019131711e-07 0.000000000000e+00 5.945060922250e-08 2.988784098534e-07 0.000000000000e+00 5.899428330468e-08 2.965842899146e-07 0.000000000000e+00 5.856237638705e-08 2.944129316177e-07 0.000000000000e+00 4.627380522980e-08 4.698261587330e-07 0.000000000000e+00 4.505582555845e-08 4.574597784062e-07 0.000000000000e+00 4.392281341363e-08 4.459560924936e-07 0.000000000000e+00 4.286696237288e-08 4.352358399285e-07 0.000000000000e+00 4.188144434692e-08 4.252296929373e-07 0.000000000000e+00 4.096022584056e-08 4.158763917634e-07 0.000000000000e+00 4.009794728081e-08 4.071215192939e-07 0.000000000000e+00 3.928982941868e-08 3.989165506734e-07 0.000000000000e+00 3.853159632553e-08 3.912180714367e-07 0.000000000000e+00 3.781941069411e-08 3.839871205830e-07 0.000000000000e+00 3.714981896597e-08 3.771886334057e-07 0.000000000000e+00 3.651970452159e-08 3.707909661973e-07 0.000000000000e+00 3.592624756587e-08 3.647654889509e-07 0.000000000000e+00 3.536689061036e-08 3.590862349219e-07 0.000000000000e+00 3.483930866637e-08 3.537295979770e-07 0.000000000000e+00 3.434138340901e-08 3.486740703001e-07 0.000000000000e+00 3.387118071636e-08 3.439000143122e-07 0.000000000000e+00 3.342693107060e-08 3.393894637114e-07 0.000000000000e+00 3.300701241243e-08 3.351259493781e-07 0.000000000000e+00 3.260993509047e-08 3.310943465889e-07 0.000000000000e+00 3.223432861980e-08 3.272807405408e-07 0.000000000000e+00 3.187892999152e-08 3.236723076626e-07 0.000000000000e+00 3.154257332579e-08 3.202572105400e-07 0.000000000000e+00 3.122418067653e-08 3.170245045738e-07 0.000000000000e+00 3.092275382684e-08 3.139640546670e-07 0.000000000000e+00 3.063736691226e-08 3.110664603226e-07 0.000000000000e+00 3.036715970580e-08 3.083229874183e-07 0.000000000000e+00 3.011133134471e-08 3.057255045240e-07 0.000000000000e+00 2.986913420232e-08 3.032664206927e-07 0.000000000000e+00 2.963986741441e-08 3.009386197905e-07 0.000000000000e+00 2.942286921800e-08 2.987353828782e-07 0.000000000000e+00 0.000000000000e+00 4.720994487037e-07 0.000000000000e+00 0.000000000000e+00 4.596732331902e-07 0.000000000000e+00 0.000000000000e+00 4.481138860375e-07 0.000000000000e+00 0.000000000000e+00 4.373417628759e-07 0.000000000000e+00 0.000000000000e+00 4.272872005205e-07 0.000000000000e+00 0.000000000000e+00 4.178886428147e-07 0.000000000000e+00 0.000000000000e+00 4.090914093506e-07 0.000000000000e+00 0.000000000000e+00 4.008467404800e-07 0.000000000000e+00 0.000000000000e+00 3.931110116684e-07 0.000000000000e+00 0.000000000000e+00 3.858450733981e-07 0.000000000000e+00 0.000000000000e+00 3.790136913057e-07 0.000000000000e+00 0.000000000000e+00 3.725850685845e-07 0.000000000000e+00 0.000000000000e+00 3.665304367035e-07 0.000000000000e+00 0.000000000000e+00 3.608237032733e-07 0.000000000000e+00 0.000000000000e+00 3.554411479389e-07 0.000000000000e+00 0.000000000000e+00 3.503611588210e-07 0.000000000000e+00 0.000000000000e+00 3.455640033289e-07 0.000000000000e+00 0.000000000000e+00 3.410316282296e-07 0.000000000000e+00 0.000000000000e+00 3.367474847076e-07 0.000000000000e+00 0.000000000000e+00 3.326963748463e-07 0.000000000000e+00 0.000000000000e+00 3.288643165090e-07 0.000000000000e+00 0.000000000000e+00 3.252384240769e-07 0.000000000000e+00 0.000000000000e+00 3.218068028599e-07 0.000000000000e+00 0.000000000000e+00 3.185584552998e-07 0.000000000000e+00 0.000000000000e+00 3.154831972590e-07 0.000000000000e+00 0.000000000000e+00 3.125715827608e-07 0.000000000000e+00 0.000000000000e+00 3.098148354330e-07 0.000000000000e+00 0.000000000000e+00 3.072047845118e-07 0.000000000000e+00 0.000000000000e+00 3.047338023228e-07 0.000000000000e+00 0.000000000000e+00 3.023947382855e-07 0.000000000000e+00 0.000000000000e+00 3.001808409021e-07 0.000000000000e+00 
        </DataArray>
        <DataArray type="Float64" Name="NORMSTRESS_1" NumberOfComponents="3" format="ascii">
          -1.843984793378e-04 9.999999829986e-01 -1.277655580358e-09 -1.272785397026e-04 9.999999919001e-01 -1.356736136769e-09 -1.144400410047e-04 9.999999934517e-01 -1.436824209847e-09 -1.110628011382e-04 9.999999938325e-01 -1.518287999477e-09 -1.101993649585e-04 9.999999939280e-01 -1.601139940713e-09 -1.100251838791e-04 9.999999939472e-01 -1.685328714666e-09 -1.100428872186e-04 9.999999939453e-01 -1.770785886183e-09 -1.101122389291e-04 9.999999939376e-01 -1.857438597678e-09 -1.101926678528e-04 9.999999939288e-01 -1.945213209375e-09 -1.102722280627e-04 9.999999939200e-01 -2.034036438943e-09 -1.103476213125e-04 9.999999939117e-01 -2.123835776891e-09 -1.104182214530e-04 9.999999939039e-01 -2.214539689420e-09 -1.104842008825e-04 9.999999938966e-01 -2.306077738984e-09 -1.105458557317e-04 9.999999938898e-01 -2.398380680901e-09 -1.106034881276e-04 9.999999938834e-01 -2.491380544696e-09 -1.106573047757e-04 9.999999938775e-01 -2.585010713138e-09 -1.107074277629e-04 9.999999938719e-01 -2.679205989999e-09 -1.107536785286e-04 9.999999938668e-01 -2.773902671432e-09 -1.107952643243e-04 9.999999938622e-01 -2.869038598914e-09 -1.108297876245e-04 9.999999938584e-01 -2.964553239473e-09 -1.108515764900e-04 9.999999938560e-01 -3.060387778966e-09 -1.108475195805e-04 9.999999938564e-01 -3.156485322248e-09 -1.107883225077e-04 9.999999938630e-01 -3.252791229269e-09 -1.106093220139e-04 9.999999938828e-01 -3.349253875320e-09 -1.101704442236e-04 9.999999939312e-01 -3.445826212859e-09 -1.091728755816e-04 9.999999940406e-01 -3.542469133312e-09 -1.069886072987e-04 9.999999942767e-01 -3.639158483579e-09 -1.023152317392e-04 9.999999947658e-01 -3.735899683607e-09 -9.248698151803e-05 9.999999957231e-01 -3.832757550267e-09 -7.211509674302e-05 9.999999973997e-01 -3.929916684498e-09 -2.976831616813e-05 9.999999995569e-01 -2.964333886586e-12 -9.801714202352e-02 9.951847265054e-01 -2.533158084760e-09 -9.801714831505e-02 9.951847258857e-01 -2.689158581075e-09 -9.801715332058e-02 9.951847253927e-01 -2.847711700094e-09 -9.801715768555e-02 9.951847249628e-01 -3.009116535742e-09 -9.801716150396e-02 9.951847245867e-01 -3.173307887335e-09 -9.801716482702e-02 9.951847242594e-01 -3.340159070853e-09 -9.801716764418e-02 9.951847239819e-01 -3.509527253906e-09 -9.801717005803e-02 9.951847237442e-01 -3.681265887552e-09 -9.801717204913e-02 9.951847235481e-01 -3.855228364679e-09 -9.801717360992e-02 9.951847233944e-01 -4.031269237683e-09 -9.801717464721e-02 9.951847232922e-01 -4.209244732315e-09 -9.801717528544e-02 9.951847232293e-01 -4.389013041790e-09 -9.801717567783e-02 9.951847231907e-01 -4.570434547716e-09 -9.801717599666e-02 9.951847231593e-01 -4.753372006957e-09 -9.801717625195e-02 9.951847231341e-01 -4.937690710369e-09 -9.801717645520e-02 9.951847231141e-01 -5.123258625793e-09 -9.801717652330e-02 9.951847231074e-01 -5.309946538833e-09 -9.801717662013e-02 9.951847230979e-01 -5.497628170017e-09 -9.801717671286e-02 9.951847230888e-01 -5.686180297069e-09 -9.801717684223e-02 9.951847230760e-01 -5.875482867627e-09 -9.801717668330e-02 9.951847230917e-01 -6.065419143320e-09 -9.801717628231e-02 9.951847231312e-01 -6.255875892484e-09 -9.801717538525e-02 9.951847232195e-01 -6.446743780328e-09 -9.801717402490e-02 9.951847233535e-01 -6.637918111017e-09 -9.801717199202e-02 9.951847235537e-01 -6.829300390982e-09 -9.801716919131e-02 9.951847238296e-01 -7.020801576765e-09 -9.801716531997e-02 9.951847242109e-01 -7.212348915084e-09 -9.801716072978e-02 9.951847246630e-01 -7.403900099615e-09 -9.801715549352e-02 9.951847251787e-01 -7.595472296339e-09 -9.801714966706e-02 9.951847257525e-01 -7.787200808809e-09 -9.801714202053e-02 9.951847265057e-01 -4.009652272725e-09 -1.950903253747e-01 9.807852797352e-01 -3.715862286926e-09 -1.950903371840e-01 9.807852773862e-01 -3.944307228779e-09 -1.950903459246e-01 9.807852756475e-01 -4.176771131701e-09 -1.950903533072e-01 9.807852741790e-01 -4.413479585361e-09 -1.950903596280e-01 9.807852729218e-01 -4.654292501758e-09 -1.950903650835e-01 9.807852718366e-01 -4.899011719659e-09 -1.950903698223e-01 9.807852708940e-01 -5.147424185650e-09 -1.950903738665e-01 9.807852700895e-01 -5.399313892679e-09 -1.950903772742e-01 9.807852694117e-01 -5.654465481858e-09 -1.950903800793e-01 9.807852688538e-01 -5.912665522347e-09 -1.950903822753e-01 9.807852684169e-01 -6.173703111029e-09 -1.950903838539e-01 9.807852681029e-01 -6.437370249861e-09 -1.950903848276e-01 9.807852679093e-01 -6.703462157193e-09 -1.950903854012e-01 9.807852677952e-01 -6.971777528667e-09 -1.950903858034e-01 9.807852677151e-01 -7.242118781448e-09 -1.950903860785e-01 9.807852676604e-01 -7.514292269077e-09 -1.950903863547e-01 9.807852676055e-01 -7.788108467505e-09 -1.950903865432e-01 9.807852675680e-01 -8.063382157203e-09 -1.950903866652e-01 9.807852675437e-01 -8.339932584813e-09 -1.950903867041e-01 9.807852675360e-01 -8.617583621975e-09 -1.950903866576e-01 9.807852675452e-01 -8.896163944205e-09 -1.950903860988e-01 9.807852676564e-01 -9.175507260963e-09 -1.950903846405e-01 9.807852679465e-01 -9.455452705897e-09 -1.950903818863e-01 9.807852684943e-01 -9.735845559979e-09 -1.950903778612e-01 9.807852692950e-01 -1.001653875074e-08 -1.950903726164e-01 9.807852703382e-01 -1.029739596500e-08 -1.950903662231e-01 9.807852716099e-01 -1.057829817085e-08 -1.950903584285e-01 9.807852731604e-01 -1.085915709978e-08 -1.950903490297e-01 9.807852750299e-01 -1.113994287820e-08 -1.950903381856e-01 9.807852771869e-01 -1.142073984281e-08 -1.950903248313e-01 9.807852798433e-01 -7.865216242765e-09 -2.902846819192e-01 9.569403343172e-01 -4.780317598879e-09 -2.902846946728e-01 9.569403304484e-01 -5.073947468396e-09 -2.902847042785e-01 9.569403275346e-01 -5.372927551176e-09 -2.902847123898e-01 9.569403250740e-01 -5.677408340320e-09 -2.902847193362e-01 9.569403229669e-01 -5.987180478145e-09 -2.902847253558e-01 9.569403211408e-01 -6.301980950262e-09 -2.902847305875e-01 9.569403195538e-01 -6.621533356528e-09 -2.902847351059e-01 9.569403181832e-01 -6.945559138165e-09 -2.902847390024e-01 9.569403170012e-01 -7.273781048870e-09 -2.902847422887e-01 9.569403160043e-01 -7.605924463291e-09 -2.902847449957e-01 9.569403151831e-01 -7.941718052905e-09 -2.902847470453e-01 9.569403145614e-01 -8.280894252006e-09 -2.902847485571e-01 9.569403141028e-01 -8.623189636703e-09 -2.902847496474e-01 9.569403137721e-01 -8.968345253749e-09 -2.902847504822e-01 9.569403135188e-01 -9.316106934566e-09 -2.902847512814e-01 9.569403132764e-01 -9.666225566750e-09 -2.902847520557e-01 9.569403130415e-01 -1.001845735097e-08 -2.902847528312e-01 9.569403128062e-01 -1.037256402211e-08 -2.902847536585e-01 9.569403125553e-01 -1.072831304808e-08 -2.902847543568e-01 9.569403123435e-01 -1.108547783511e-08 -2.902847546714e-01 9.569403122480e-01 -1.144383793603e-08 -2.902847542230e-01 9.569403123841e-01 -1.180317930723e-08 -2.902847528113e-01 9.569403128123e-01 -1.216329468549e-08 -2.902847501514e-01 9.569403136192e-01 -1.252398428633e-08 -2.902847461125e-01 9.569403148444e-01 -1.288505720479e-08 -2.902847403890e-01 9.569403165806e-01 -1.324633435239e-08 -2.902847328095e-01 9.569403188798e-01 -1.360765452704e-08 -2.902847232201e-01 9.569403217887e-01 -1.396888700008e-08 -2.902847118306e-01 9.569403252437e-01 -1.432995723289e-08 -2.902846985385e-01 9.569403292758e-01 -1.469089892371e-08 -2.902846815118e-01 9.569403344408e-01 -1.141852507934e-08 -3.826834380673e-01 9.238795301494e-01 -5.685617670604e-09 -3.826834489007e-01 9.238795256620e-01 -6.034667931842e-09 -3.826834570935e-01 9.238795222685e-01 -6.390213409274e-09 -3.826834640837e-01 9.238795193730e-01 -6.752330788254e-09 -3.826834700795e-01 9.238795168895e-01 -7.120749731147e-09 -3.826834753471e-01 9.238795147075e-01 -7.495151493011e-09 -3.826834801242e-01 9.238795127288e-01 -7.875205627764e-09 -3.826834844526e-01 9.238795109359e-01 -8.260580327244e-09 -3.826834883034e-01 9.238795093409e-01 -8.650945700068e-09 -3.826834915704e-01 9.238795079876e-01 -9.045975081618e-09 -3.826834942798e-01 9.238795068654e-01 -9.445345757769e-09 -3.826834964824e-01 9.238795059530e-01 -9.848739494688e-09 -3.826834982703e-01 9.238795052124e-01 -1.025584299136e-08 -3.826834995361e-01 9.238795046881e-01 -1.066634827589e-08 -3.826835004258e-01 9.238795043196e-01 -1.107995305843e-08 -3.826835010914e-01 9.238795040439e-01 -1.149636105735e-08 -3.826835017200e-01 9.238795037835e-01 -1.191528230329e-08 -3.826835024449e-01 9.238795034833e-01 -1.233643341013e-08 -3.826835030157e-01 9.238795032469e-01 -1.275953782442e-08 -3.826835032678e-01 9.238795031424e-01 -1.318432604355e-08 -3.826835031305e-01 9.238795031993e-01 -1.361053583617e-08 -3.826835026485e-01 9.238795033989e-01 -1.403791251263e-08 -3.826835016544e-01 9.238795038107e-01 -1.446620931659e-08 -3.826834998247e-01 9.238795045686e-01 -1.489518808799e-08 -3.826834964877e-01 9.238795059508e-01 -1.532462055808e-08 -3.826834913921e-01 9.238795080615e-01 -1.575429099735e-08 -3.826834843512e-01 9.238795109779e-01 -1.618400177024e-08 -3.826834755359e-01 9.238795146294e-01 -1.661358479768e-08 -3.826834649087e-01 9.238795190313e-01 -1.704292500425e-08 -3.826834522923e-01 9.238795242572e-01 -1.747200771684e-08 -3.826834372725e-01 9.238795304786e-01 -1.453302678690e-08 -4.713967435039e-01 8.819212607789e-01 -6.396972409265e-09 -4.713967502403e-01 8.819212571783e-01 -6.789548767032e-09 -4.713967549297e-01 8.819212546717e-01 -7.189535098238e-09 -4.713967589274e-01 8.819212525349e-01 -7.596938404546e-09 -4.713967622977e-01 8.819212507334e-01 -8.011437996443e-09 -4.713967652571e-01 8.819212491516e-01 -8.432670663926e-09 -4.713967679128e-01 8.819212477321e-01 -8.860263303092e-09 -4.713967704227e-01 8.819212463905e-01 -9.293842202717e-09 -4.713967727731e-01 8.819212451342e-01 -9.733036082470e-09 -4.713967749248e-01 8.819212439841e-01 -1.017747738364e-08 -4.713967768022e-01 8.819212429806e-01 -1.062680301857e-08 -4.713967783320e-01 8.819212421629e-01 -1.108065494922e-08 -4.713967796017e-01 8.819212414843e-01 -1.153868067763e-08 -4.713967806970e-01 8.819212408988e-01 -1.200053369985e-08 -4.713967816555e-01 8.819212403865e-01 -1.246587391248e-08 -4.713967824286e-01 8.819212399733e-01 -1.293436798609e-08 -4.713967831005e-01 8.819212396141e-01 -1.340568968470e-08 -4.713967837281e-01 8.819212392786e-01 -1.387952017007e-08 -4.713967844171e-01 8.819212389104e-01 -1.435554827808e-08 -4.713967852124e-01 8.819212384853e-01 -1.483347078005e-08 -4.713967859369e-01 8.819212380980e-01 -1.531299262924e-08 -4.713967862930e-01 8.819212379077e-01 -1.579382722181e-08 -4.713967861599e-01 8.819212379788e-01 -1.627569674280e-08 -4.713967853235e-01 8.819212384259e-01 -1.675833279536e-08 -4.713967836625e-01 8.819212393137e-01 -1.724147757667e-08 -4.713967808361e-01 8.819212408245e-01 -1.772488627838e-08 -4.713967765872e-01 8.819212430956e-01 -1.820833199467e-08 -4.713967707364e-01 8.819212462228e-01 -1.869161587735e-08 -4.713967632911e-01 8.819212502025e-01 -1.917458795496e-08 -4.713967543238e-01 8.819212549956e-01 -1.965718925448e-08 -4.713967430754e-01 8.819212610080e-01 -1.708903264601e-08 -5.555702403698e-01 8.314696073913e-01 -6.887044969418e-09 -5.555702416667e-01 8.314696065247e-01 -7.309580458345e-09 -5.555702419747e-01 8.314696063190e-01 -7.740175277278e-09 -5.555702421443e-01 8.314696062056e-01 -8.178773552217e-09 -5.555702422847e-01 8.314696061118e-01 -8.625016799902e-09 -5.555702424576e-01 8.314696059963e-01 -9.078510312796e-09 -5.555702426761e-01 8.314696058503e-01 -9.538851350877e-09 -5.555702430371e-01 8.314696056090e-01 -1.000563726673e-08 -5.555702435906e-01 8.314696052392e-01 -1.047846825259e-08 -5.555702444529e-01 8.314696046630e-01 -1.095694856362e-08 -5.555702454442e-01 8.314696040007e-01 -1.144068729404e-08 -5.555702464065e-01 8.314696033577e-01 -1.192929898031e-08 -5.555702472060e-01 8.314696028235e-01 -1.242240413312e-08 -5.555702478613e-01 8.314696023857e-01 -1.291962971838e-08 -5.555702483643e-01 8.314696020495e-01 -1.342060958804e-08 -5.555702487413e-01 8.314696017977e-01 -1.392498487326e-08 -5.555702488464e-01 8.314696017274e-01 -1.443240434880e-08 -5.555702486792e-01 8.314696018391e-01 -1.494252475849e-08 -5.555702484022e-01 8.314696020242e-01 -1.545501111021e-08 -5.555702482554e-01 8.314696021223e-01 -1.596953693962e-08 -5.555702483263e-01 8.314696020749e-01 -1.648578455988e-08 -5.555702486656e-01 8.314696018482e-01 -1.700344533242e-08 -5.555702489517e-01 8.314696016571e-01 -1.752222002847e-08 -5.555702490840e-01 8.314696015687e-01 -1.804181937368e-08 -5.555702489486e-01 8.314696016591e-01 -1.856196507071e-08 -5.555702485856e-01 8.314696019017e-01 -1.908239185144e-08 -5.555702479462e-01 8.314696023289e-01 -1.960285174500e-08 -5.555702468329e-01 8.314696030728e-01 -2.012312287288e-08 -5.555702449227e-01 8.314696043492e-01 -2.064302742473e-08 -5.555702420798e-01 8.314696062487e-01 -2.116246797822e-08 -5.555702396844e-01 8.314696078493e-01 -1.898831596829e-08 -6.343932920119e-01 7.730104469218e-01 -7.137002220068e-09 -6.343932881239e-01 7.730104501127e-01 -7.574778568241e-09 -6.343932841226e-01 7.730104533965e-01 -8.020973249278e-09 -6.343932804430e-01 7.730104564162e-01 -8.475476734281e-09 -6.343932770323e-01 7.730104592153e-01 -8.937906762971e-09 -6.343932739398e-01 7.730104617532e-01 -9.407851313294e-09 -6.343932711883e-01 7.730104640113e-01 -9.884892175307e-09 -6.343932688710e-01 7.730104659130e-01 -1.036861183777e-08 -6.343932671067e-01 7.730104673610e-01 -1.085859590316e-08 -6.343932658121e-01 7.730104684235e-01 -1.135443424417e-08 -6.343932649597e-01 7.730104691230e-01 -1.185572176470e-08 -6.343932644611e-01 7.730104695322e-01 -1.236205901926e-08 -6.343932641649e-01 7.730104697753e-01 -1.287305275568e-08 -6.343932640211e-01 7.730104698933e-01 -1.338831639882e-08 -6.343932639726e-01 7.730104699331e-01 -1.390747051175e-08 -6.343932639675e-01 7.730104699373e-01 -1.443014321115e-08 -6.343932640025e-01 7.730104699086e-01 -1.495597053902e-08 -6.343932640155e-01 7.730104698979e-01 -1.548459679152e-08 -6.343932640267e-01 7.730104698887e-01 -1.601567481279e-08 -6.343932642151e-01 7.730104697341e-01 -1.654886627215e-08 -6.343932648110e-01 7.730104692450e-01 -1.708384193367e-08 -6.343932658695e-01 7.730104683764e-01 -1.762028192332e-08 -6.343932673271e-01 7.730104671802e-01 -1.815787603614e-08 -6.343932691335e-01 7.730104656976e-01 -1.869632421012e-08 -6.343932713857e-01 7.730104638493e-01 -1.923533740121e-08 -6.343932741868e-01 7.730104615505e-01 -1.977463933928e-08 -6.343932775540e-01 7.730104587871e-01 -2.031397009227e-08 -6.343932811844e-01 7.730104558077e-01 -2.085309340146e-08 -6.343932847362e-01 7.730104528929e-01 -2.139181166691e-08 -6.343932879648e-01 7.730104502432e-01 -2.192999629876e-08 -6.343932918471e-01 7.730104470571e-01 -2.015788812898e-08 7.071067886371e-01 -7.071067737360e-01 -7.137238458081e-09 7.071067811865e-01 -7.071067811865e-01 -7.574951692937e-09 -7.071067737360e-01 7.071067886371e-01 8.021138117357e-09 -7.071067672478e-01 7.071067951253e-01 8.475645823831e-09 -7.071067607823e-01 7.071068015908e-01 8.938083718948e-09 -7.071067553770e-01 7.071068069961e-01 9.408037302480e-09 -7.071067509221e-01 7.071068114509e-01 9.885087641668e-09 -7.071067462402e-01 7.071068161329e-01 1.036881701841e-08 -7.071067428323e-01 7.071068195408e-01 1.085881094366e-08 -7.071067403780e-01 7.071068219951e-01 1.135465926730e-08 -7.071067380632e-01 7.071068243099e-01 1.185595688760e-08 -7.071067364831e-01 7.071068258900e-01 1.236230432911e-08 -7.071067352581e-01 7.071068271150e-01 1.287330832830e-08 -7.071067343604e-01 7.071068280127e-01 1.338858231201e-08 -7.071067340649e-01 7.071068283082e-01 1.390774684009e-08 -7.071067337713e-01 7.071068286018e-01 1.443043002985e-08 -7.071067331895e-01 7.071068291836e-01 1.495626791043e-08 -7.071067329013e-01 7.071068294718e-01 1.548490475035e-08 -7.071067326147e-01 7.071068297584e-01 1.601599339927e-08 -7.071067326147e-01 7.071068297584e-01 1.654919552448e-08 -7.071067331895e-01 7.071068291836e-01 1.708418185991e-08 -7.071067337713e-01 7.071068286018e-01 1.762063247805e-08 -7.071067355612e-01 7.071068268118e-01 1.815823702591e-08 -7.071067383862e-01 7.071068239869e-01 1.869669521178e-08 -7.071067417618e-01 7.071068206113e-01 1.923571749697e-08 -7.071067462402e-01 7.071068161329e-01 1.977502645304e-08 -7.071067523306e-01 7.071068100425e-01 2.031435965170e-08 -7.071067594646e-01 7.071068029085e-01 2.085347560313e-08 -7.071067672478e-01 7.071067951253e-01 2.139216576279e-08 -7.071067811865e-01 7.071067811865e-01 2.193027869231e-08 7.071067886371e-01 -7.071067737360e-01 2.055280300751e-08 7.730104614291e-01 -6.343932743348e-01 -6.887744580780e-09 7.730104499679e-01 -6.343932883003e-01 -7.310093180095e-09 7.730104400641e-01 -6.343933003681e-01 -7.740663545051e-09 7.730104313385e-01 -6.343933110003e-01 -8.179274324259e-09 7.730104236265e-01 -6.343933203974e-01 -8.625540835390e-09 7.730104167203e-01 -6.343933288126e-01 -9.079061072974e-09 7.730104105538e-01 -6.343933363265e-01 -9.539430174096e-09 7.730104051761e-01 -6.343933428792e-01 -1.000624483332e-08 7.730104006557e-01 -6.343933483873e-01 -1.047910501350e-08 7.730103970071e-01 -6.343933528332e-01 -1.095761488012e-08 7.730103941015e-01 -6.343933563736e-01 -1.144138348329e-08 7.730103918329e-01 -6.343933591379e-01 -1.193002533041e-08 7.730103900697e-01 -6.343933612864e-01 -1.242316090534e-08 7.730103887801e-01 -6.343933628578e-01 -1.292041714361e-08 7.730103879485e-01 -6.343933638711e-01 -1.342142787259e-08 7.730103874938e-01 -6.343933644252e-01 -1.392583420948e-08 7.730103873409e-01 -6.343933646115e-01 -1.443328491137e-08 7.730103873877e-01 -6.343933645545e-01 -1.494343669924e-08 7.730103874765e-01 -6.343933644462e-01 -1.545595454865e-08 7.730103877813e-01 -6.343933640748e-01 -1.597051194377e-08 7.730103886133e-01 -6.343933630611e-01 -1.648679111556e-08 7.730103903168e-01 -6.343933609853e-01 -1.700448326760e-08 7.730103931159e-01 -6.343933575746e-01 -1.752328882532e-08 7.730103969891e-01 -6.343933528551e-01 -1.804291778753e-08 7.730104019769e-01 -6.343933467775e-01 -1.856309028949e-08 7.730104083508e-01 -6.343933390109e-01 -1.908353768020e-08 7.730104162791e-01 -6.343933293501e-01 -1.960400472172e-08 7.730104256973e-01 -6.343933178741e-01 -2.012425408316e-08 7.730104363717e-01 -6.343933048673e-01 -2.064407551138e-08 7.730104481144e-01 -6.343932905588e-01 -2.116330439764e-08 7.730104616806e-01 -6.343932740283e-01 -2.015788416554e-08 8.314696201138e-01 -5.555702213292e-01 -6.398108469622e-09 8.314696077815e-01 -5.555702397859e-01 -6.790381294231e-09 8.314695973455e-01 -5.555702554044e-01 -7.190327880422e-09 8.314695881891e-01 -5.555702691079e-01 -7.597751464967e-09 8.314695801604e-01 -5.555702811237e-01 -8.012288804880e-09 8.314695730734e-01 -5.555702917301e-01 -8.433564829973e-09 8.314695667682e-01 -5.555703011665e-01 -8.861202990074e-09 8.314695611513e-01 -5.555703095729e-01 -9.294828518400e-09 8.314695562990e-01 -5.555703168348e-01 -9.734069775286e-09 8.314695522665e-01 -5.555703228698e-01 -1.017855904797e-08 8.314695490264e-01 -5.555703277191e-01 -1.062793316824e-08 8.314695464483e-01 -5.555703315774e-01 -1.108183404850e-08 8.314695443935e-01 -5.555703346526e-01 -1.153990915813e-08 8.314695428711e-01 -5.555703369311e-01 -1.200181195392e-08 8.314695419741e-01 -5.555703382735e-01 -1.246720228633e-08 8.314695416455e-01 -5.555703387653e-01 -1.293574677990e-08 8.314695417178e-01 -5.555703386572e-01 -1.340711917016e-08 8.314695420488e-01 -5.555703381617e-01 -1.388100059172e-08 8.314695426324e-01 -5.555703372883e-01 -1.435707983392e-08 8.314695435923e-01 -5.555703358517e-01 -1.483505358311e-08 8.314695450416e-01 -5.555703336827e-01 -1.531462665192e-08 8.314695470254e-01 -5.555703307137e-01 -1.579551217995e-08 8.314695496349e-01 -5.555703268083e-01 -1.627743183213e-08 8.314695531293e-01 -5.555703215786e-01 -1.676011604982e-08 8.314695578336e-01 -5.555703145381e-01 -1.724330449042e-08 8.314695639214e-01 -5.555703054272e-01 -1.772674683927e-08 8.314695714685e-01 -5.555702941321e-01 -1.821020437309e-08 8.314695806981e-01 -5.555702803189e-01 -1.869345313130e-08 8.314695917756e-01 -5.555702637403e-01 -1.917629046347e-08 8.314696048169e-01 -5.555702442227e-01 -1.965854827806e-08 8.314696205303e-01 -5.555702207060e-01 -1.898830900911e-08 8.819212717089e-01 -4.713967230555e-01 -5.687146368400e-09 8.819212609915e-01 -4.713967431063e-01 -6.035788095446e-09 8.819212518129e-01 -4.713967602781e-01 -6.391280037376e-09 8.819212437363e-01 -4.713967753884e-01 -6.753424651891e-09 8.819212365979e-01 -4.713967887435e-01 -7.121894341356e-09 8.819212302830e-01 -4.713968005577e-01 -7.496354403807e-09 8.819212246978e-01 -4.713968110069e-01 -7.876469751660e-09 8.819212198106e-01 -4.713968201504e-01 -8.261907145891e-09 8.819212155536e-01 -4.713968281145e-01 -8.652336215004e-09 8.819212118742e-01 -4.713968349983e-01 -9.047430106471e-09 8.819212088146e-01 -4.713968407224e-01 -9.446866004939e-09 8.819212063794e-01 -4.713968452782e-01 -9.850325602559e-09 8.819212045578e-01 -4.713968486863e-01 -1.025749553273e-08 8.819212032386e-01 -4.713968511543e-01 -1.066806776921e-08 8.819212023551e-01 -4.713968528072e-01 -1.108173997649e-08 8.819212019461e-01 -4.713968535723e-01 -1.149821582363e-08 8.819212020362e-01 -4.713968534039e-01 -1.191720528388e-08 8.819212025687e-01 -4.713968524077e-01 -1.233842491415e-08 8.819212034119e-01 -4.713968508300e-01 -1.276159809967e-08 8.819212045056e-01 -4.713968487838e-01 -1.318645524961e-08 8.819212060287e-01 -4.713968459344e-01 -1.361273395958e-08 8.819212082155e-01 -4.713968418432e-01 -1.404017919357e-08 8.819212111806e-01 -4.713968362959e-01 -1.446854347737e-08 8.819212148989e-01 -4.713968293394e-01 -1.489758710968e-08 8.819212194019e-01 -4.713968209148e-01 -1.532707842917e-08 8.819212249269e-01 -4.713968105783e-01 -1.575679431051e-08 8.819212317725e-01 -4.713967977712e-01 -1.618652119774e-08 8.819212399874e-01 -4.713967824022e-01 -1.661605722109e-08 8.819212494399e-01 -4.713967647177e-01 -1.704521642800e-08 8.819212599514e-01 -4.713967450522e-01 -1.747383731773e-08 8.819212719311e-01 -4.713967226397e-01 -1.708902395282e-08 9.238795390147e-01 -3.826834166644e-01 -4.782180053692e-09 9.238795306714e-01 -3.826834368069e-01 -5.075312087581e-09 9.238795235813e-01 -3.826834539239e-01 -5.374226895707e-09 9.238795173222e-01 -3.826834690347e-01 -5.678740826788e-09 9.238795118109e-01 -3.826834823403e-01 -5.988574748907e-09 9.238795069426e-01 -3.826834940934e-01 -6.303446203866e-09 9.238795026119e-01 -3.826835045485e-01 -6.623073137230e-09 9.238794987601e-01 -3.826835138477e-01 -6.947175254265e-09 9.238794953741e-01 -3.826835220223e-01 -7.275474724733e-09 9.238794924856e-01 -3.826835289957e-01 -7.607696690564e-09 9.238794900808e-01 -3.826835348013e-01 -7.943569705045e-09 9.238794881051e-01 -3.826835395710e-01 -8.282826122385e-09 9.238794865885e-01 -3.826835432325e-01 -8.625202442902e-09 9.238794855635e-01 -3.826835457072e-01 -8.970439643232e-09 9.238794850546e-01 -3.826835469357e-01 -9.318283482749e-09 9.238794850027e-01 -3.826835470610e-01 -9.668484789236e-09 9.238794852976e-01 -3.826835463490e-01 -1.002079970670e-08 9.238794859101e-01 -3.826835448703e-01 -1.037498990172e-08 9.238794868282e-01 -3.826835426537e-01 -1.073082275994e-08 9.238794880590e-01 -3.826835396823e-01 -1.108807156738e-08 9.238794896020e-01 -3.826835359572e-01 -1.144651567853e-08 9.238794914600e-01 -3.826835314717e-01 -1.180594064989e-08 9.238794937285e-01 -3.826835259951e-01 -1.216613835082e-08 9.238794965214e-01 -3.826835192524e-01 -1.252690709964e-08 9.238794998838e-01 -3.826835111348e-01 -1.288805186394e-08 9.238795039182e-01 -3.826835013948e-01 -1.324938456605e-08 9.238795087532e-01 -3.826834897223e-01 -1.361072465094e-08 9.238795145461e-01 -3.826834757369e-01 -1.397190021107e-08 9.238795214460e-01 -3.826834590791e-01 -1.433275030700e-08 9.238795295227e-01 -3.826834395801e-01 -1.469312969901e-08 9.238795392115e-01 -3.826834161893e-01 -1.453301816580e-08 9.569403411479e-01 -2.902846594015e-01 -3.717986812476e-09 9.569403359087e-01 -2.902846766728e-01 -3.945863731443e-09 9.569403313992e-01 -2.902846915385e-01 -4.178253120020e-09 9.569403273925e-01 -2.902847047468e-01 -4.414999344021e-09 9.569403238580e-01 -2.902847163983e-01 -4.655882707046e-09 9.569403207530e-01 -2.902847266344e-01 -4.900682861229e-09 9.569403180446e-01 -2.902847355626e-01 -5.149180301462e-09 9.569403156775e-01 -2.902847433660e-01 -5.401157045030e-09 9.569403135815e-01 -2.902847502756e-01 -5.656397075432e-09 9.569403117416e-01 -2.902847563408e-01 -5.914686700399e-09 9.569403101768e-01 -2.902847614994e-01 -6.175814876418e-09 9.569403089183e-01 -2.902847656481e-01 -6.439573509723e-09 9.569403079484e-01 -2.902847688453e-01 -6.705757739725e-09 9.569403072213e-01 -2.902847712422e-01 -6.974166194085e-09 9.569403067592e-01 -2.902847727655e-01 -7.244601214393e-09 9.569403065975e-01 -2.902847732988e-01 -7.516869070988e-09 9.569403067403e-01 -2.902847728280e-01 -7.790780159737e-09 9.569403071501e-01 -2.902847714770e-01 -8.066149181247e-09 9.569403077552e-01 -2.902847694824e-01 -8.342795296828e-09 9.569403085575e-01 -2.902847668375e-01 -8.620542250397e-09 9.569403096466e-01 -2.902847632472e-01 -8.899218480535e-09 9.569403110550e-01 -2.902847586042e-01 -9.178657237241e-09 9.569403127477e-01 -2.902847530242e-01 -9.458696679292e-09 9.569403147004e-01 -2.902847465872e-01 -9.739179953850e-09 9.569403169786e-01 -2.902847390768e-01 -1.001995527953e-08 9.569403197227e-01 -2.902847300308e-01 -1.030087607445e-08 9.569403230471e-01 -2.902847190716e-01 -1.058180119911e-08 9.569403269314e-01 -2.902847062668e-01 -1.086259542457e-08 9.569403312780e-01 -2.902846919380e-01 -1.114313033526e-08 9.569403360114e-01 -2.902846763342e-01 -1.142328615373e-08 9.569403412349e-01 -2.902846591145e-01 -1.141851749177e-08 9.807852843640e-01 -1.950903021040e-01 -2.535462978147e-09 9.807852816875e-01 -1.950903155595e-01 -2.690847111919e-09 9.807852793355e-01 -1.950903273839e-01 -2.849319354163e-09 9.807852772323e-01 -1.950903379573e-01 -3.010765144603e-09 9.807852754031e-01 -1.950903471536e-01 -3.175032902730e-09 9.807852738288e-01 -1.950903550680e-01 -3.341971876723e-09 9.807852724545e-01 -1.950903619773e-01 -3.511432240168e-09 9.807852712350e-01 -1.950903681079e-01 -3.683265301494e-09 9.807852701640e-01 -1.950903734921e-01 -3.857323733875e-09 9.807852692413e-01 -1.950903781309e-01 -4.033461805987e-09 9.807852684610e-01 -1.950903820535e-01 -4.211535599194e-09 9.807852678165e-01 -1.950903852941e-01 -4.391403208096e-09 9.807852672909e-01 -1.950903879361e-01 -4.572924929955e-09 9.807852669159e-01 -1.950903898215e-01 -4.755963432663e-09 9.807852667151e-01 -1.950903908310e-01 -4.940383921104e-09 9.807852666817e-01 -1.950903909991e-01 -5.126054286178e-09 9.807852667931e-01 -1.950903904389e-01 -5.312845233937e-09 9.807852670185e-01 -1.950903893059e-01 -5.500630402558e-09 9.807852673514e-01 -1.950903876319e-01 -5.689286463160e-09 9.807852678105e-01 -1.950903853241e-01 -5.878693213151e-09 9.807852684099e-01 -1.950903823105e-01 -6.068733658836e-09 9.807852691359e-01 -1.950903786608e-01 -6.259294084818e-09 9.807852699634e-01 -1.950903745006e-01 -6.450264105617e-09 9.807852708944e-01 -1.950903698203e-01 -6.641536705988e-09 9.807852719734e-01 -1.950903643956e-01 -6.833008272484e-09 9.807852732803e-01 -1.950903578256e-01 -7.024578619733e-09 9.807852748640e-01 -1.950903498638e-01 -7.216151017356e-09 9.807852767451e-01 -1.950903404066e-01 -7.407632205357e-09 9.807852789131e-01 -1.950903295073e-01 -7.598932423709e-09 9.807852813885e-01 -1.950903170628e-01 -7.789965467457e-09 9.807852843692e-01 -1.950903020781e-01 -7.865210675872e-09 9.951847288681e-01 -9.801711803432e-02 -1.280052334655e-09 9.951847276792e-01 -9.801713010545e-02 -1.358491908895e-09 9.951847267671e-01 -9.801713936643e-02 -1.438495885064e-09 9.951847261207e-01 -9.801714592893e-02 -1.520002260133e-09 9.951847256237e-01 -9.801715097518e-02 -1.602933654133e-09 9.951847252204e-01 -9.801715506974e-02 -1.687213723279e-09 9.951847248825e-01 -9.801715850034e-02 -1.772766758624e-09 9.951847245921e-01 -9.801716144936e-02 -1.859517672727e-09 9.951847243356e-01 -9.801716405315e-02 -1.947392082695e-09 9.951847241074e-01 -9.801716637013e-02 -2.036316413912e-09 9.951847239071e-01 -9.801716840416e-02 -2.126218006360e-09 9.951847237391e-01 -9.801717010944e-02 -2.217025216661e-09 9.951847236017e-01 -9.801717150443e-02 -2.308667515301e-09 9.951847234972e-01 -9.801717256580e-02 -2.401075571421e-09 9.951847234214e-01 -9.801717333559e-02 -2.494181335034e-09 9.951847233767e-01 -9.801717378890e-02 -2.587918108114e-09 9.951847233675e-01 -9.801717388251e-02 -2.682220613095e-09 9.951847233870e-01 -9.801717368467e-02 -2.777025056271e-09 9.951847234324e-01 -9.801717322403e-02 -2.872269175795e-09 9.951847235099e-01 -9.801717243685e-02 -2.967892284996e-09 9.951847236182e-01 -9.801717133703e-02 -3.063835316719e-09 9.951847237743e-01 -9.801716975203e-02 -3.160040848781e-09 9.951847239833e-01 -9.801716763084e-02 -3.256453138727e-09 9.951847242437e-01 -9.801716498671e-02 -3.353018136549e-09 9.951847245681e-01 -9.801716169331e-02 -3.449683478910e-09 9.951847249735e-01 -9.801715757692e-02 -3.546398471762e-09 9.951847254804e-01 -9.801715242972e-02 -3.643114032471e-09 9.951847261260e-01 -9.801714587482e-02 -3.739782551715e-09 9.951847269318e-01 -9.801713769369e-02 -3.836357627866e-09 9.951847278925e-01 -9.801712793936e-02 -3.932793513204e-09 9.951847288152e-01 -9.801711857172e-02 -4.009648874301e-09 9.999999830008e-01 -1.843867659763e-04 -2.396392686622e-12 9.999999919010e-01 -1.272716470393e-04 -1.763951890133e-12 9.999999934525e-01 -1.144330793050e-04 -1.679415589966e-12 9.999999938333e-01 -1.110555941408e-04 -1.722196154906e-12 9.999999939289e-01 -1.101920563414e-04 -1.802037206146e-12 9.999999939480e-01 -1.100179242864e-04 -1.893788374386e-12 9.999999939461e-01 -1.100356983328e-04 -1.990137524012e-12 9.999999939384e-01 -1.101051125263e-04 -2.088842363052e-12 9.999999939296e-01 -1.101855745994e-04 -2.189152418220e-12 9.999999939208e-01 -1.102652753654e-04 -2.290772056598e-12 9.999999939124e-01 -1.103409092776e-04 -2.393548266759e-12 9.999999939046e-01 -1.104117964230e-04 -2.497376040680e-12 9.999999938973e-01 -1.104780065822e-04 -2.602166297368e-12 9.999999938905e-01 -1.105398714516e-04 -2.707837548124e-12 9.999999938841e-01 -1.105976646444e-04 -2.814309132301e-12 9.999999938781e-01 -1.106516268430e-04 -2.921501743284e-12 9.999999938725e-01 -1.107019030789e-04 -3.029335677464e-12 9.999999938674e-01 -1.107483133478e-04 -3.137723983234e-12 9.999999938628e-01 -1.107900294009e-04 -3.246561506863e-12 9.999999938589e-01 -1.108247754515e-04 -3.355697601506e-12 9.999999938565e-01 -1.108468471950e-04 -3.464867165370e-12 9.999999938569e-01 -1.108431605858e-04 -3.573546435494e-12 9.999999938634e-01 -1.107843145628e-04 -3.680619717849e-12 9.999999938832e-01 -1.106056202097e-04 -3.783649934932e-12 9.999999939316e-01 -1.101670245710e-04 -3.877293992375e-12 9.999999940410e-01 -1.091698077454e-04 -3.949916881642e-12 9.999999942770e-01 -1.069859739348e-04 -3.976468181627e-12 9.999999947660e-01 -1.023131432359e-04 -3.903693469226e-12 9.999999957232e-01 -9.248528849297e-05 -3.619842757133e-12 9.999999973999e-01 -7.211308338677e-05 -2.893431555444e-12 9.999999995571e-01 -2.976287335273e-05 -1.217528771952e-12 
        </DataArray>
        <DataArray type="Float64" Name="NORMSTRESS_2" NumberOfComponents="3" format="ascii">
          -5.237054378459e-13 1.277655505510e-09 1.000000000000e+00 -3.867593401454e-13 1.356736098532e-09 1.000000000000e+00 -3.711613982099e-13 1.436824176780e-09 1.000000000000e+00 -3.837320857742e-13 1.518287966223e-09 1.000000000000e+00 -4.049264041202e-13 1.601139905813e-09 1.000000000000e+00 -4.292880511313e-13 1.685328677634e-09 1.000000000000e+00 -4.552501067998e-13 1.770785846808e-09 1.000000000000e+00 -4.823600620545e-13 1.857438555824e-09 1.000000000000e+00 -5.104975496479e-13 1.945213164932e-09 1.000000000000e+00 -5.396453763008e-13 2.034036391802e-09 1.000000000000e+00 -5.698218094237e-13 2.123835726943e-09 1.000000000000e+00 -6.010593596411e-13 2.214539636552e-09 1.000000000000e+00 -6.333979076022e-13 2.306077683079e-09 1.000000000000e+00 -6.668821078943e-13 2.398380621834e-09 1.000000000000e+00 -7.015612276635e-13 2.491380482340e-09 1.000000000000e+00 -7.374889333567e-13 2.585010647356e-09 1.000000000000e+00 -7.747237106862e-13 2.679205920650e-09 1.000000000000e+00 -8.133276874947e-13 2.773902598366e-09 1.000000000000e+00 -8.533642876487e-13 2.869038521975e-09 1.000000000000e+00 -8.948897446267e-13 2.964553158500e-09 1.000000000000e+00 -9.379365254703e-13 3.060387693797e-09 1.000000000000e+00 -9.824703638915e-13 3.156485232736e-09 1.000000000000e+00 -1.028293652254e-12 3.252791135309e-09 1.000000000000e+00 -1.074822722015e-12 3.349253776922e-09 1.000000000000e+00 -1.120596299989e-12 3.445826110315e-09 1.000000000000e+00 -1.162198707014e-12 3.542469027542e-09 1.000000000000e+00 -1.191939985136e-12 3.639158376883e-09 1.000000000000e+00 -1.192911123178e-12 3.735899581108e-09 1.000000000000e+00 -1.128586458235e-12 3.832757462279e-09 1.000000000000e+00 -9.211896208206e-13 3.929916628286e-09 1.000000000000e+00 -2.930591098309e-16 2.964333879175e-12 1.000000000000e+00 -5.519252783831e-10 2.491055057756e-09 1.000000000000e+00 -5.903488396741e-10 2.644025981163e-09 1.000000000000e+00 -6.300561687481e-10 2.799435438382e-09 1.000000000000e+00 -6.711914983927e-10 2.957569764666e-09 1.000000000000e+00 -7.138090494447e-10 3.118358103559e-09 1.000000000000e+00 -7.579514119810e-10 3.281668963321e-09 1.000000000000e+00 -8.036608250880e-10 3.447354660306e-09 1.000000000000e+00 -8.509825048767e-10 3.615263483064e-09 1.000000000000e+00 -8.999658572260e-10 3.785243249095e-09 1.000000000000e+00 -9.506651300428e-10 3.957142464119e-09 1.000000000000e+00 -1.003139932904e-09 4.130810787284e-09 1.000000000000e+00 -1.057455755545e-09 4.306099275455e-09 1.000000000000e+00 -1.113684518809e-09 4.482860551037e-09 1.000000000000e+00 -1.171905182086e-09 4.660948929911e-09 1.000000000000e+00 -1.232204410770e-09 4.840220515333e-09 1.000000000000e+00 -1.294677326632e-09 5.020533267614e-09 1.000000000000e+00 -1.359428344653e-09 5.201747063240e-09 1.000000000000e+00 -1.426572118988e-09 5.383723719141e-09 1.000000000000e+00 -1.496234593868e-09 5.566327012421e-09 1.000000000000e+00 -1.568554205403e-09 5.749422675023e-09 1.000000000000e+00 -1.643683230374e-09 5.932878406106e-09 1.000000000000e+00 -1.721789357754e-09 6.116563910197e-09 1.000000000000e+00 -1.803057487269e-09 6.300351112791e-09 1.000000000000e+00 -1.887691892855e-09 6.484114692301e-09 1.000000000000e+00 -1.975918835171e-09 6.667733394237e-09 1.000000000000e+00 -2.067989949063e-09 6.851092960717e-09 1.000000000000e+00 -2.164186873826e-09 7.034092548034e-09 1.000000000000e+00 -2.264828200839e-09 7.216658266394e-09 1.000000000000e+00 -2.370280616310e-09 7.398771249514e-09 1.000000000000e+00 -2.480978199991e-09 7.580524702643e-09 1.000000000000e+00 -1.305216588069e-09 3.900500650441e-09 1.000000000000e+00 -1.611429482172e-09 3.468127076550e-09 1.000000000000e+00 -1.723442255018e-09 3.678766781396e-09 1.000000000000e+00 -1.839321404612e-09 3.892735114817e-09 1.000000000000e+00 -1.959396177503e-09 4.110196593436e-09 1.000000000000e+00 -2.083805610463e-09 4.330980728497e-09 1.000000000000e+00 -2.212668652531e-09 4.554861816045e-09 1.000000000000e+00 -2.346107050023e-09 4.781598411794e-09 1.000000000000e+00 -2.484252329325e-09 5.010944114733e-09 1.000000000000e+00 -2.627248572168e-09 5.242650687244e-09 1.000000000000e+00 -2.775254099621e-09 5.476469025186e-09 1.000000000000e+00 -2.928442920418e-09 5.712149481258e-09 1.000000000000e+00 -3.087006212647e-09 5.949441954978e-09 1.000000000000e+00 -3.251153927808e-09 6.188095890980e-09 1.000000000000e+00 -3.421116561458e-09 6.427860192438e-09 1.000000000000e+00 -3.597147115185e-09 6.668483080085e-09 1.000000000000e+00 -3.779523279965e-09 6.909711877465e-09 1.000000000000e+00 -3.968549880420e-09 7.151292713837e-09 1.000000000000e+00 -4.164561610393e-09 7.392970166475e-09 1.000000000000e+00 -4.367926125721e-09 7.634486809506e-09 1.000000000000e+00 -4.579047525175e-09 7.875582683820e-09 1.000000000000e+00 -4.798370312063e-09 8.115994691295e-09 1.000000000000e+00 -5.026383883779e-09 8.355455937850e-09 1.000000000000e+00 -5.263627736015e-09 8.593695094871e-09 1.000000000000e+00 -5.510697497352e-09 8.830435936356e-09 1.000000000000e+00 -5.768252136054e-09 9.065397432316e-09 1.000000000000e+00 -6.037022748819e-09 9.298295175556e-09 1.000000000000e+00 -6.317823844241e-09 9.528845787008e-09 1.000000000000e+00 -6.611568662215e-09 9.756777616424e-09 1.000000000000e+00 -6.919291575845e-09 9.981854457726e-09 1.000000000000e+00 -7.242183160430e-09 1.020392548055e-08 1.000000000000e+00 -5.095892269072e-09 7.005668932740e-09 1.000000000000e+00 -3.084585688229e-09 4.059719800912e-09 1.000000000000e+00 -3.298833169186e-09 4.301570911086e-09 1.000000000000e+00 -3.520596967668e-09 4.546732932389e-09 1.000000000000e+00 -3.750417712546e-09 4.795199128991e-09 1.000000000000e+00 -3.988542748110e-09 5.046675691308e-09 1.000000000000e+00 -4.235194489302e-09 5.300820300956e-09 1.000000000000e+00 -4.490604442701e-09 5.557273893719e-09 1.000000000000e+00 -4.755023903707e-09 5.815669146871e-09 1.000000000000e+00 -5.028728518143e-09 6.075632722516e-09 1.000000000000e+00 -5.312021272274e-09 6.336785728244e-09 1.000000000000e+00 -5.605235213824e-09 6.598743597725e-09 1.000000000000e+00 -5.908736267920e-09 6.861115723947e-09 1.000000000000e+00 -6.222926307486e-09 7.123504922704e-09 1.000000000000e+00 -6.548246516699e-09 7.385506756593e-09 1.000000000000e+00 -6.885181154904e-09 7.646708721135e-09 1.000000000000e+00 -7.234261733589e-09 7.906689261324e-09 1.000000000000e+00 -7.596071702692e-09 8.165016619820e-09 1.000000000000e+00 -7.971251693861e-09 8.421247476523e-09 1.000000000000e+00 -8.360505423845e-09 8.674925365507e-09 1.000000000000e+00 -8.764606339834e-09 8.925578875240e-09 1.000000000000e+00 -9.184405189004e-09 9.172719569429e-09 1.000000000000e+00 -9.620838596037e-09 9.415839654109e-09 1.000000000000e+00 -1.007493893567e-08 9.654409374613e-09 1.000000000000e+00 -1.054784563247e-08 9.887874319437e-09 1.000000000000e+00 -1.104081848432e-08 1.011565284066e-08 1.000000000000e+00 -1.155525342163e-08 1.033713434513e-08 1.000000000000e+00 -1.209270194356e-08 1.055167973926e-08 1.000000000000e+00 -1.265489567803e-08 1.075862713315e-08 1.000000000000e+00 -1.324377934624e-08 1.095730871112e-08 1.000000000000e+00 -1.386155706392e-08 1.114709108165e-08 1.000000000000e+00 -1.100798852227e-08 8.593090228424e-09 1.000000000000e+00 -4.836523411959e-09 4.150714609298e-09 1.000000000000e+00 -5.172295285949e-09 4.389442584709e-09 1.000000000000e+00 -5.519963811015e-09 4.630273181659e-09 1.000000000000e+00 -5.880290167681e-09 4.872974108273e-09 1.000000000000e+00 -6.253644041872e-09 5.117099624070e-09 1.000000000000e+00 -6.640369082146e-09 5.362162377456e-09 1.000000000000e+00 -7.040826792952e-09 5.607654955334e-09 1.000000000000e+00 -7.455410734952e-09 5.853055192975e-09 1.000000000000e+00 -7.884552961030e-09 6.097827056742e-09 1.000000000000e+00 -8.328728483456e-09 6.341420211807e-09 1.000000000000e+00 -8.788459482563e-09 6.583269061007e-09 1.000000000000e+00 -9.264319686910e-09 6.822791504470e-09 1.000000000000e+00 -9.756939192449e-09 7.059387433084e-09 1.000000000000e+00 -1.026700973677e-08 7.292436974588e-09 1.000000000000e+00 -1.079529059930e-08 7.521298428298e-09 1.000000000000e+00 -1.134261513604e-08 7.745305912988e-09 1.000000000000e+00 -1.190989813260e-08 7.963766649917e-09 1.000000000000e+00 -1.249814402879e-08 8.175957850184e-09 1.000000000000e+00 -1.310845616881e-08 8.381123156649e-09 1.000000000000e+00 -1.374204724653e-08 8.578468549438e-09 1.000000000000e+00 -1.440025110029e-08 8.767157698713e-09 1.000000000000e+00 -1.508453617436e-08 8.946306680890e-09 1.000000000000e+00 -1.579652081527e-08 9.114978070531e-09 1.000000000000e+00 -1.653799094279e-08 9.272174338288e-09 1.000000000000e+00 -1.731092032179e-08 9.416830859303e-09 1.000000000000e+00 -1.811749442913e-08 9.547808883046e-09 1.000000000000e+00 -1.896013856273e-08 9.663889906833e-09 1.000000000000e+00 -1.984155201061e-08 9.763773924406e-09 1.000000000000e+00 -2.076474986903e-08 9.846087491955e-09 1.000000000000e+00 -2.173311595782e-08 9.909413113566e-09 1.000000000000e+00 -1.847011418476e-08 8.079862966547e-09 1.000000000000e+00 -6.703120643865e-09 3.670558030968e-09 1.000000000000e+00 -7.168326122588e-09 3.867038128883e-09 1.000000000000e+00 -7.650125874565e-09 4.063050490259e-09 1.000000000000e+00 -8.149492283300e-09 4.258083297688e-09 1.000000000000e+00 -8.666920386546e-09 4.451508322163e-09 1.000000000000e+00 -9.202881613853e-09 4.642661738847e-09 1.000000000000e+00 -9.757875557829e-09 4.830853451362e-09 1.000000000000e+00 -1.033244723713e-08 5.015368393348e-09 1.000000000000e+00 -1.092719528464e-08 5.195465598670e-09 1.000000000000e+00 -1.154277799866e-08 5.370376429532e-09 1.000000000000e+00 -1.217991905276e-08 5.539302374525e-09 1.000000000000e+00 -1.283941359215e-08 5.701412445718e-09 1.000000000000e+00 -1.352213484518e-08 5.855840199038e-09 1.000000000000e+00 -1.422904149133e-08 6.001680312224e-09 1.000000000000e+00 -1.496118580018e-08 6.137984695951e-09 1.000000000000e+00 -1.571972274715e-08 6.263758045536e-09 1.000000000000e+00 -1.650592014641e-08 6.377952784115e-09 1.000000000000e+00 -1.732117004542e-08 6.479463319118e-09 1.000000000000e+00 -1.816700154652e-08 6.567119501172e-09 1.000000000000e+00 -1.904509529271e-08 6.639679179359e-09 1.000000000000e+00 -1.995729985479e-08 6.695819724726e-09 1.000000000000e+00 -2.090565026502e-08 6.734128418996e-09 1.000000000000e+00 -2.189238916711e-08 6.753091536512e-09 1.000000000000e+00 -2.291999097542e-08 6.751082149384e-09 1.000000000000e+00 -2.399118974635e-08 6.726346559723e-09 1.000000000000e+00 -2.510901120415e-08 6.676989910416e-09 1.000000000000e+00 -2.627680980315e-08 6.600961934021e-09 1.000000000000e+00 -2.749831137175e-08 6.496045673623e-09 1.000000000000e+00 -2.877766208444e-08 6.359854909930e-09 1.000000000000e+00 -3.011948264231e-08 6.189852964841e-09 1.000000000000e+00 -2.675333312270e-08 5.077095590636e-09 1.000000000000e+00 -8.505265521932e-09 2.599941765487e-09 1.000000000000e+00 -9.095397576074e-09 2.713807229084e-09 1.000000000000e+00 -9.706685477421e-09 2.823229688704e-09 1.000000000000e+00 -1.034028519211e-08 2.927369546678e-09 1.000000000000e+00 -1.099680852746e-08 3.025386861353e-09 1.000000000000e+00 -1.167684906450e-08 3.116410303157e-09 1.000000000000e+00 -1.238103937801e-08 3.199532827582e-09 1.000000000000e+00 -1.311007059681e-08 3.273808375748e-09 1.000000000000e+00 -1.386470217863e-08 3.338248648419e-09 1.000000000000e+00 -1.464576933845e-08 3.391819612210e-09 1.000000000000e+00 -1.545419027919e-08 3.433437607037e-09 1.000000000000e+00 -1.629097388697e-08 3.461964925835e-09 1.000000000000e+00 -1.715722815002e-08 3.476204828927e-09 1.000000000000e+00 -1.805416948311e-08 3.474895889682e-09 1.000000000000e+00 -1.898313304542e-08 3.456705621203e-09 1.000000000000e+00 -1.994558428173e-08 3.420223236565e-09 1.000000000000e+00 -2.094313179655e-08 3.363951489214e-09 1.000000000000e+00 -2.197754186409e-08 3.286297362711e-09 1.000000000000e+00 -2.305075467850e-08 3.185561566142e-09 1.000000000000e+00 -2.416490270186e-08 3.059926592608e-09 1.000000000000e+00 -2.532233135317e-08 2.907443201486e-09 1.000000000000e+00 -2.652562259530e-08 2.726014981301e-09 1.000000000000e+00 -2.777762168482e-08 2.513380921661e-09 1.000000000000e+00 -2.908146777098e-08 2.267095606232e-09 1.000000000000e+00 -3.044062863572e-08 1.984507236477e-09 1.000000000000e+00 -3.185894044802e-08 1.662733530967e-09 1.000000000000e+00 -3.334065275883e-08 1.298636801718e-09 1.000000000000e+00 -3.489047881769e-08 8.888009150156e-10 1.000000000000e+00 -3.651364896901e-08 4.295172332536e-10 1.000000000000e+00 -3.821596135263e-08 -8.320559315025e-11 1.000000000000e+00 -3.503476949542e-08 -5.724314070803e-10 1.000000000000e+00 -1.006445811299e-08 9.730495990669e-10 1.000000000000e+00 -1.076263921612e-08 9.663937750485e-10 1.000000000000e+00 -1.148594759689e-08 9.500068579893e-10 1.000000000000e+00 -1.223567877681e-08 9.226839439140e-10 1.000000000000e+00 -1.301254153670e-08 8.833488432716e-10 1.000000000000e+00 -1.381723401542e-08 8.308955974581e-10 1.000000000000e+00 -1.465050351301e-08 7.641698976082e-10 1.000000000000e+00 -1.551316747665e-08 6.819607689226e-10 1.000000000000e+00 -1.640612444893e-08 5.829947102511e-10 1.000000000000e+00 -1.733036268908e-08 4.659301197743e-10 1.000000000000e+00 -1.828696870396e-08 3.293512734241e-10 1.000000000000e+00 -1.927713631796e-08 1.717616853673e-10 1.000000000000e+00 -2.030217663892e-08 -8.423368362084e-12 1.000000000000e+00 -2.136352902712e-08 -2.128852300321e-10 1.000000000000e+00 -2.246277336975e-08 -4.434113346468e-10 1.000000000000e+00 -2.360164372535e-08 -7.019058704605e-10 1.000000000000e+00 -2.478204361550e-08 -9.904018492271e-10 1.000000000000e+00 -2.600606308751e-08 -1.311074680394e-09 1.000000000000e+00 -2.727599794716e-08 -1.666257579517e-09 1.000000000000e+00 -2.859437145984e-08 -2.058459023178e-09 1.000000000000e+00 -2.996395894838e-08 -2.490382584516e-09 1.000000000000e+00 -3.138781559326e-08 -2.964949393517e-09 1.000000000000e+00 -3.286930801545e-08 -3.485323659834e-09 1.000000000000e+00 -3.441215014927e-08 -4.054941504786e-09 1.000000000000e+00 -3.602044415415e-08 -4.677543411898e-09 1.000000000000e+00 -3.769872661833e-08 -5.357209868147e-09 1.000000000000e+00 -3.945202011963e-08 -6.098399062981e-09 1.000000000000e+00 -4.128588865104e-08 -6.905982870451e-09 1.000000000000e+00 -4.320649279963e-08 -7.785272760094e-09 1.000000000000e+00 -4.522063308252e-08 -8.742016106223e-09 1.000000000000e+00 -4.246952983559e-08 -8.776720589546e-09 1.000000000000e+00 1.121840702337e-08 1.124827728121e-09 1.000000000000e+00 1.199651571217e-08 1.283916293697e-09 1.000000000000e+00 1.280271784842e-08 1.459115386917e-09 1.000000000000e+00 1.363839130817e-08 1.652017732826e-09 1.000000000000e+00 1.450431226465e-08 1.863952575367e-09 1.000000000000e+00 1.540125501272e-08 2.096280425573e-09 1.000000000000e+00 1.633005138145e-08 2.350425573828e-09 1.000000000000e+00 1.729161218241e-08 2.627889544763e-09 1.000000000000e+00 1.828693886414e-08 2.930260005522e-09 1.000000000000e+00 1.931713296758e-08 3.259218532719e-09 1.000000000000e+00 2.038340553206e-08 3.616549043054e-09 1.000000000000e+00 2.148708721808e-08 4.004147162099e-09 1.000000000000e+00 2.262963940605e-08 4.424030418345e-09 1.000000000000e+00 2.381266650042e-08 4.878349913835e-09 1.000000000000e+00 2.503792954262e-08 5.369403312968e-09 1.000000000000e+00 2.630736139199e-08 5.899649373252e-09 1.000000000000e+00 2.762308374587e-08 6.471724510171e-09 1.000000000000e+00 2.898742623575e-08 7.088461462280e-09 1.000000000000e+00 3.040294790323e-08 7.752910202140e-09 1.000000000000e+00 3.187246134886e-08 8.468361820719e-09 1.000000000000e+00 3.339906002057e-08 9.238375438092e-09 1.000000000000e+00 3.498614917282e-08 1.006680872373e-08 1.000000000000e+00 3.663748110148e-08 1.095785295962e-08 1.000000000000e+00 3.835719506379e-08 1.191607208076e-08 1.000000000000e+00 4.014986242135e-08 1.294644689478e-08 1.000000000000e+00 4.202053728256e-08 1.405442390507e-08 1.000000000000e+00 4.397481226691e-08 1.524596691984e-08 1.000000000000e+00 4.601887703742e-08 1.652760709545e-08 1.000000000000e+00 4.815957250934e-08 1.790648025675e-08 1.000000000000e+00 5.040442376649e-08 1.939032621321e-08 1.000000000000e+00 -4.826473282762e-08 -1.919868078045e-08 1.000000000000e+00 1.183527565972e-08 3.564109850399e-09 1.000000000000e+00 1.265606010328e-08 3.898486287251e-09 1.000000000000e+00 1.350655918556e-08 4.256110071098e-09 1.000000000000e+00 1.438816717628e-08 4.638965985011e-09 1.000000000000e+00 1.530169047280e-08 5.048643004605e-09 1.000000000000e+00 1.624794246201e-08 5.486765926354e-09 1.000000000000e+00 1.722779970440e-08 5.955041032141e-09 1.000000000000e+00 1.824222277452e-08 6.455274524695e-09 1.000000000000e+00 1.929226806392e-08 6.989384210001e-09 1.000000000000e+00 2.037909762069e-08 7.559410010962e-09 1.000000000000e+00 2.150398906336e-08 8.167524967398e-09 1.000000000000e+00 2.266834622191e-08 8.816047306043e-09 1.000000000000e+00 2.387371082221e-08 9.507453857202e-09 1.000000000000e+00 2.512177543564e-08 1.024439509181e-08 1.000000000000e+00 2.641439788616e-08 1.102971197889e-08 1.000000000000e+00 2.775361732324e-08 1.186645493799e-08 1.000000000000e+00 2.914167212078e-08 1.275790510110e-08 1.000000000000e+00 3.058101999656e-08 1.370759831500e-08 1.000000000000e+00 3.207436061442e-08 1.471935222102e-08 1.000000000000e+00 3.362466113310e-08 1.579729701675e-08 1.000000000000e+00 3.523518502362e-08 1.694591018502e-08 1.000000000000e+00 3.690952473801e-08 1.817005593917e-08 1.000000000000e+00 3.865163863974e-08 1.947502981651e-08 1.000000000000e+00 4.046589301428e-08 2.086660929907e-08 1.000000000000e+00 4.235710941924e-08 2.235111064969e-08 1.000000000000e+00 4.433061756996e-08 2.393545167683e-08 1.000000000000e+00 4.639231265320e-08 2.562721807170e-08 1.000000000000e+00 4.854871379101e-08 2.743472754382e-08 1.000000000000e+00 5.080701447566e-08 2.936707682167e-08 1.000000000000e+00 5.317510369478e-08 3.143413815178e-08 1.000000000000e+00 5.174926145517e-08 3.128159949985e-08 1.000000000000e+00 1.182534846116e-08 6.181593957425e-09 1.000000000000e+00 1.264534790669e-08 6.702736941854e-09 1.000000000000e+00 1.349510398261e-08 7.254601474664e-09 1.000000000000e+00 1.437595781649e-08 7.839548843266e-09 1.000000000000e+00 1.528870421416e-08 8.459422379039e-09 1.000000000000e+00 1.623415281183e-08 9.116108894014e-09 1.000000000000e+00 1.721317854006e-08 9.811595583645e-09 1.000000000000e+00 1.822674090805e-08 1.054799301665e-08 1.000000000000e+00 1.927589533446e-08 1.132754968188e-08 1.000000000000e+00 2.036180284284e-08 1.215266504919e-08 1.000000000000e+00 2.148573993376e-08 1.302590322758e-08 1.000000000000e+00 2.264910923228e-08 1.395000793206e-08 1.000000000000e+00 2.385345116717e-08 1.492791911079e-08 1.000000000000e+00 2.510045687210e-08 1.596279149165e-08 1.000000000000e+00 2.639198257439e-08 1.705801538297e-08 1.000000000000e+00 2.773006564686e-08 1.821723999124e-08 1.000000000000e+00 2.911694257156e-08 1.944439969950e-08 1.000000000000e+00 3.055506900367e-08 2.074374358820e-08 1.000000000000e+00 3.204714233523e-08 2.211986875724e-08 1.000000000000e+00 3.359612716265e-08 2.357775800827e-08 1.000000000000e+00 3.520528414660e-08 2.512282261005e-08 1.000000000000e+00 3.687820259761e-08 2.676095069710e-08 1.000000000000e+00 3.861883741352e-08 2.849856220810e-08 1.000000000000e+00 4.043155075963e-08 3.034267083367e-08 1.000000000000e+00 4.232115914788e-08 3.230095367532e-08 1.000000000000e+00 4.429298570620e-08 3.438182797756e-08 1.000000000000e+00 4.635291624302e-08 3.659453222489e-08 1.000000000000e+00 4.850745476253e-08 3.894920356146e-08 1.000000000000e+00 5.076376817885e-08 4.145693289293e-08 1.000000000000e+00 5.312969529487e-08 4.412975447795e-08 1.000000000000e+00 5.243321838561e-08 4.429380529770e-08 1.000000000000e+00 1.114910935972e-08 8.794058451824e-09 1.000000000000e+00 1.192213479949e-08 9.500693685583e-09 1.000000000000e+00 1.272327199018e-08 1.024539057187e-08 1.000000000000e+00 1.355374125783e-08 1.103085122126e-08 1.000000000000e+00 1.441428271327e-08 1.185915523249e-08 1.000000000000e+00 1.530565710403e-08 1.273243588537e-08 1.000000000000e+00 1.622868856015e-08 1.365294585851e-08 1.000000000000e+00 1.718428147068e-08 1.462308406770e-08 1.000000000000e+00 1.817343082497e-08 1.564541284342e-08 1.000000000000e+00 1.919723124666e-08 1.672267345462e-08 1.000000000000e+00 2.025688622684e-08 1.785780229277e-08 1.000000000000e+00 2.135371813407e-08 1.905394858895e-08 1.000000000000e+00 2.248917925145e-08 2.031449414418e-08 1.000000000000e+00 2.366486399851e-08 2.164307533631e-08 1.000000000000e+00 2.488252247211e-08 2.304360772680e-08 1.000000000000e+00 2.614407552225e-08 2.452031361078e-08 1.000000000000e+00 2.745163164818e-08 2.607775297687e-08 1.000000000000e+00 2.880750600122e-08 2.772085845443e-08 1.000000000000e+00 3.021424172808e-08 2.945497472223e-08 1.000000000000e+00 3.167463395119e-08 3.128590298163e-08 1.000000000000e+00 3.319175679659e-08 3.321995121464e-08 1.000000000000e+00 3.476899412158e-08 3.526399125961e-08 1.000000000000e+00 3.641007438647e-08 3.742552360627e-08 1.000000000000e+00 3.811911003512e-08 3.971275061309e-08 1.000000000000e+00 3.990064148953e-08 4.213465828992e-08 1.000000000000e+00 4.175968569175e-08 4.470110610521e-08 1.000000000000e+00 4.370178782536e-08 4.742292153353e-08 1.000000000000e+00 4.573307172027e-08 5.031198978072e-08 1.000000000000e+00 4.786027716168e-08 5.338131461305e-08 1.000000000000e+00 5.009075803477e-08 5.664499681102e-08 1.000000000000e+00 5.005194003313e-08 5.738870332472e-08 1.000000000000e+00 9.821033983740e-09 1.121363536799e-08 1.000000000000e+00 1.050191064537e-08 1.209142530239e-08 1.000000000000e+00 1.120759648832e-08 1.301399879549e-08 1.000000000000e+00 1.193913067305e-08 1.398434447711e-08 1.000000000000e+00 1.269715762395e-08 1.500474753439e-08 1.000000000000e+00 1.348234536069e-08 1.607755880607e-08 1.000000000000e+00 1.429541923906e-08 1.720526649495e-08 1.000000000000e+00 1.513717573903e-08 1.839052591891e-08 1.000000000000e+00 1.600849125616e-08 1.963617889528e-08 1.000000000000e+00 1.691032996702e-08 2.094527140524e-08 1.000000000000e+00 1.784375198800e-08 2.232107212867e-08 1.000000000000e+00 1.880992219175e-08 2.376709270962e-08 1.000000000000e+00 1.981011986965e-08 2.528711020542e-08 1.000000000000e+00 2.084574946313e-08 2.688519211856e-08 1.000000000000e+00 2.191835252323e-08 2.856572446657e-08 1.000000000000e+00 2.302962107102e-08 3.033344327137e-08 1.000000000000e+00 2.418141249374e-08 3.219346987694e-08 1.000000000000e+00 2.537576617590e-08 3.415135059406e-08 1.000000000000e+00 2.661492223051e-08 3.621310139510e-08 1.000000000000e+00 2.790134268257e-08 3.838525858349e-08 1.000000000000e+00 2.923773544163e-08 4.067493622234e-08 1.000000000000e+00 3.062708133483e-08 4.308989105232e-08 1.000000000000e+00 3.207266461751e-08 4.563859589489e-08 1.000000000000e+00 3.357810744547e-08 4.833032250083e-08 1.000000000000e+00 3.514740860112e-08 5.117523448711e-08 1.000000000000e+00 3.678498604451e-08 5.418448931511e-08 1.000000000000e+00 3.849572160267e-08 5.737034468972e-08 1.000000000000e+00 4.028500311577e-08 6.074625737694e-08 1.000000000000e+00 4.215875317100e-08 6.432694649680e-08 1.000000000000e+00 4.412341940343e-08 6.812835770727e-08 1.000000000000e+00 4.459077338836e-08 6.967504699011e-08 1.000000000000e+00 7.908764427412e-09 1.326363206615e-08 1.000000000000e+00 8.457016067426e-09 1.428596270543e-08 1.000000000000e+00 9.025281215085e-09 1.535872406253e-08 1.000000000000e+00 9.614369530492e-09 1.648512134436e-08 1.000000000000e+00 1.022479426278e-08 1.766760334403e-08 1.000000000000e+00 1.085709175738e-08 1.890869723380e-08 1.000000000000e+00 1.151184565680e-08 2.021108320170e-08 1.000000000000e+00 1.218969721117e-08 2.157762609087e-08 1.000000000000e+00 1.289135213732e-08 2.301139648225e-08 1.000000000000e+00 1.361758687597e-08 2.451569010916e-08 1.000000000000e+00 1.436925511097e-08 2.609404822822e-08 1.000000000000e+00 1.514729486146e-08 2.775027995801e-08 1.000000000000e+00 1.595273630933e-08 2.948848708390e-08 1.000000000000e+00 1.678671045224e-08 3.131309170793e-08 1.000000000000e+00 1.765045869786e-08 3.322886713790e-08 1.000000000000e+00 1.854534358387e-08 3.524097246944e-08 1.000000000000e+00 1.947286076543e-08 3.735499140585e-08 1.000000000000e+00 2.043465248522e-08 3.957697603635e-08 1.000000000000e+00 2.143252270150e-08 4.191349616725e-08 1.000000000000e+00 2.246845408497e-08 4.437169499043e-08 1.000000000000e+00 2.354462721774e-08 4.695935200743e-08 1.000000000000e+00 2.466344239107e-08 4.968495440651e-08 1.000000000000e+00 2.582754423638e-08 5.255777790887e-08 1.000000000000e+00 2.703984947824e-08 5.558797802853e-08 1.000000000000e+00 2.830357787486e-08 5.878669184588e-08 1.000000000000e+00 2.962228607413e-08 6.216614918161e-08 1.000000000000e+00 3.099990291550e-08 6.573978806845e-08 1.000000000000e+00 3.244076212992e-08 6.952236083491e-08 1.000000000000e+00 3.394962251584e-08 7.352999753212e-08 1.000000000000e+00 3.553165370444e-08 7.778015280156e-08 1.000000000000e+00 3.628845050880e-08 8.029141047997e-08 1.000000000000e+00 5.527734031149e-09 1.479344275117e-08 1.000000000000e+00 5.910893944766e-09 1.592324386689e-08 1.000000000000e+00 6.308065548320e-09 1.710765736810e-08 1.000000000000e+00 6.719796486451e-09 1.835002364950e-08 1.000000000000e+00 7.146441653014e-09 1.965290388793e-08 1.000000000000e+00 7.588374849203e-09 2.101895004619e-08 1.000000000000e+00 8.046003700541e-09 2.245097936692e-08 1.000000000000e+00 8.519776307977e-09 2.395200675926e-08 1.000000000000e+00 9.010185883069e-09 2.552526694445e-08 1.000000000000e+00 9.517775091043e-09 2.717423509069e-08 1.000000000000e+00 1.004314060144e-08 2.890264856951e-08 1.000000000000e+00 1.058693803377e-08 3.071453079390e-08 1.000000000000e+00 1.114988741485e-08 3.261421767520e-08 1.000000000000e+00 1.173277921284e-08 3.460638714931e-08 1.000000000000e+00 1.233648107379e-08 3.669609214830e-08 1.000000000000e+00 1.296194532265e-08 3.888879752078e-08 1.000000000000e+00 1.361021733489e-08 4.119042146511e-08 1.000000000000e+00 1.428244492665e-08 4.360738214103e-08 1.000000000000e+00 1.497988891523e-08 4.614665028215e-08 1.000000000000e+00 1.570393502953e-08 4.881580860403e-08 1.000000000000e+00 1.645610736290e-08 5.162311898100e-08 1.000000000000e+00 1.723808356050e-08 5.457759840615e-08 1.000000000000e+00 1.805171198774e-08 5.768910505398e-08 1.000000000000e+00 1.889903106794e-08 6.096843534911e-08 1.000000000000e+00 1.978229085714e-08 6.442743230828e-08 1.000000000000e+00 2.070397652861e-08 6.807910347748e-08 1.000000000000e+00 2.166683259862e-08 7.193774247732e-08 1.000000000000e+00 2.267388470286e-08 7.601903839477e-08 1.000000000000e+00 2.372845168170e-08 8.034013637010e-08 1.000000000000e+00 2.483413147191e-08 8.491956651506e-08 1.000000000000e+00 2.561876213298e-08 8.847848429184e-08 1.000000000000e+00 2.831700699417e-09 1.569126892297e-08 1.000000000000e+00 3.027965743610e-09 1.688371566583e-08 1.000000000000e+00 3.231420314548e-09 1.813319863473e-08 1.000000000000e+00 3.442335795105e-09 1.944310586962e-08 1.000000000000e+00 3.660892098489e-09 2.081605335536e-08 1.000000000000e+00 3.887280184396e-09 2.225475874434e-08 1.000000000000e+00 4.121708713077e-09 2.376211296757e-08 1.000000000000e+00 4.364407189149e-09 2.534121226411e-08 1.000000000000e+00 4.615628261254e-09 2.699538067315e-08 1.000000000000e+00 4.875649916019e-09 2.872819126369e-08 1.000000000000e+00 5.144777802057e-09 3.054348864476e-08 1.000000000000e+00 5.423347766682e-09 3.244541368328e-08 1.000000000000e+00 5.711728659319e-09 3.443843094023e-08 1.000000000000e+00 6.010325418529e-09 3.652735918232e-08 1.000000000000e+00 6.319582517000e-09 3.871740548253e-08 1.000000000000e+00 6.639987791710e-09 4.101420343196e-08 1.000000000000e+00 6.972076745185e-09 4.342385609853e-08 1.000000000000e+00 7.316437370211e-09 4.595298430733e-08 1.000000000000e+00 7.673715551585e-09 4.860878105736e-08 1.000000000000e+00 8.044621149909e-09 5.139907288250e-08 1.000000000000e+00 8.429934897550e-09 5.433238933317e-08 1.000000000000e+00 8.830516159668e-09 5.741804166148e-08 1.000000000000e+00 9.247311758881e-09 6.066621190298e-08 1.000000000000e+00 9.681365850416e-09 6.408805303083e-08 1.000000000000e+00 1.013383090248e-08 6.769580063292e-08 1.000000000000e+00 1.060597961590e-08 7.150289407104e-08 1.000000000000e+00 1.109921711146e-08 7.552410081445e-08 1.000000000000e+00 1.161509160225e-08 7.977562633154e-08 1.000000000000e+00 1.215529960392e-08 8.427516946116e-08 1.000000000000e+00 1.272167658853e-08 8.904183303852e-08 1.000000000000e+00 1.325207502908e-08 9.364296720307e-08 1.000000000000e+00 5.326891910122e-12 1.589321835236e-08 1.000000000000e+00 3.950726118459e-12 1.718194308945e-08 1.000000000000e+00 3.790873537847e-12 1.845146469782e-08 1.000000000000e+00 3.919114078406e-12 1.978214529695e-08 1.000000000000e+00 4.135532388175e-12 2.117661866381e-08 1.000000000000e+00 4.384332506470e-12 2.263762129401e-08 1.000000000000e+00 4.649487425623e-12 2.416806467134e-08 1.000000000000e+00 4.926368692520e-12 2.577106761441e-08 1.000000000000e+00 5.213744163061e-12 2.744997903934e-08 1.000000000000e+00 5.511444294649e-12 2.920839941561e-08 1.000000000000e+00 5.819655990273e-12 3.105020350582e-08 1.000000000000e+00 6.138709124427e-12 3.297956526656e-08 1.000000000000e+00 6.469005448137e-12 3.500098554379e-08 1.000000000000e+00 6.811002776145e-12 3.711932294227e-08 1.000000000000e+00 7.165202318762e-12 3.933982834654e-08 1.000000000000e+00 7.532154076549e-12 4.166818345739e-08 1.000000000000e+00 7.912456902708e-12 4.411054409139e-08 1.000000000000e+00 8.306745282422e-12 4.667358889716e-08 1.000000000000e+00 8.715664205373e-12 4.936457436284e-08 1.000000000000e+00 9.139797501593e-12 5.219139691819e-08 1.000000000000e+00 9.579474510857e-12 5.516266309204e-08 1.000000000000e+00 1.003434701937e-11 5.828776884462e-08 1.000000000000e+00 1.050238434230e-11 6.157698936827e-08 1.000000000000e+00 1.097761434363e-11 6.504158041794e-08 1.000000000000e+00 1.144509565684e-11 6.869389115734e-08 1.000000000000e+00 1.186991211239e-11 7.254748655855e-08 1.000000000000e+00 1.217344178792e-11 7.661727266806e-08 1.000000000000e+00 1.218283292717e-11 8.091960751408e-08 1.000000000000e+00 1.152477838240e-11 8.547235679091e-08 1.000000000000e+00 9.404868290232e-12 9.029480372390e-08 1.000000000000e+00 4.043459277718e-12 9.494817487826e-08 1.000000000000e+00 
        </DataArray>
        <DataArray type="Float64" Name="NORMSTRESS_3" NumberOfComponents="3" format="ascii">
          9.999999829986e-01 1.843984793378e-04 2.881076966085e-13 9.999999919001e-01 1.272785397026e-04 2.140759476298e-13 9.999999934517e-01 1.144400410047e-04 2.067311780722e-13 9.999999938325e-01 1.110628011382e-04 2.151067689443e-13 9.999999939280e-01 1.101993649585e-04 2.284818008313e-13 9.999999939472e-01 1.100251838791e-04 2.438594508795e-13 9.999999939453e-01 1.100428872186e-04 2.603877168148e-13 9.999999939376e-01 1.101122389291e-04 2.778333410752e-13 9.999999939288e-01 1.101926678528e-04 2.961493183624e-13 9.999999939200e-01 1.102722280627e-04 3.153476481352e-13 9.999999939117e-01 1.103476213125e-04 3.354615854277e-13 9.999999939039e-01 1.104182214530e-04 3.565338279719e-13 9.999999938966e-01 1.104842008825e-04 3.786127537483e-13 9.999999938898e-01 1.105458557317e-04 4.017510656086e-13 9.999999938834e-01 1.106034881276e-04 4.260058517726e-13 9.999999938775e-01 1.106573047757e-04 4.514386177884e-13 9.999999938719e-01 1.107074277629e-04 4.781157100164e-13 9.999999938668e-01 1.107536785286e-04 5.061077658574e-13 9.999999938622e-01 1.107952643243e-04 5.354884010122e-13 9.999999938584e-01 1.108297876245e-04 5.663289421724e-13 9.999999938560e-01 1.108515764900e-04 5.986877191794e-13 9.999999938564e-01 1.108475195805e-04 6.325817992143e-13 9.999999938630e-01 1.107883225077e-04 6.679223725950e-13 9.999999938828e-01 1.106093220139e-04 7.043640259221e-13 9.999999939312e-01 1.101704442236e-04 7.409680998974e-13 9.999999940406e-01 1.091728755816e-04 7.754571696929e-13 9.999999942767e-01 1.069886072987e-04 8.025914918325e-13 9.999999947658e-01 1.023152317392e-04 8.106716855390e-13 9.999999957231e-01 9.248698151803e-05 7.741062848310e-13 9.999999973997e-01 7.211509674302e-05 6.377833005844e-13 9.999999995569e-01 2.976831616813e-05 2.048158815579e-16 9.951847265054e-01 9.801714202352e-02 3.051015098345e-10 9.951847258857e-01 9.801714831505e-02 3.283462614435e-10 9.951847253927e-01 9.801715332058e-02 3.526295827026e-10 9.951847249628e-01 9.801715768555e-02 3.780669447360e-10 9.951847245867e-01 9.801716150396e-02 4.047192524154e-10 9.951847242594e-01 9.801716482702e-02 4.326417792487e-10 9.951847239819e-01 9.801716764418e-02 4.618910367222e-10 9.951847237442e-01 9.801717005803e-02 4.925268934028e-10 9.951847235481e-01 9.801717204913e-02 5.246134340317e-10 9.951847233944e-01 9.801717360992e-02 5.582194945776e-10 9.951847232922e-01 9.801717464721e-02 5.934191341782e-10 9.951847232293e-01 9.801717528544e-02 6.302921259301e-10 9.951847231907e-01 9.801717567783e-02 6.689244894026e-10 9.951847231593e-01 9.801717599666e-02 7.094090826291e-10 9.951847231341e-01 9.801717625195e-02 7.518462580272e-10 9.951847231141e-01 9.801717645520e-02 7.963446016358e-10 9.951847231074e-01 9.801717652330e-02 8.430217606307e-10 9.951847230979e-01 9.801717662013e-02 8.920053805615e-10 9.951847230888e-01 9.801717671286e-02 9.434341515565e-10 9.951847230760e-01 9.801717684223e-02 9.974590034556e-10 9.951847230917e-01 9.801717668330e-02 1.054244449498e-09 9.951847231312e-01 9.801717628231e-02 1.113970142259e-09 9.951847232195e-01 9.801717538525e-02 1.176832646405e-09 9.951847233535e-01 9.801717402490e-02 1.243047535975e-09 9.951847235537e-01 9.801717199202e-02 1.312851868844e-09 9.951847238296e-01 9.801716919131e-02 1.386507268464e-09 9.951847242109e-01 9.801716531997e-02 1.464303905013e-09 9.951847246630e-01 9.801716072978e-02 1.546566076232e-09 9.951847251787e-01 9.801715549352e-02 1.633660551714e-09 9.951847257525e-01 9.801714966706e-02 1.726010185222e-09 9.951847265057e-01 9.801714202053e-02 9.166156870230e-10 9.807852797352e-01 1.950903253747e-01 9.038682756403e-10 9.807852773862e-01 1.950903371840e-01 9.726349383433e-10 9.807852756475e-01 1.950903459246e-01 1.044544310684e-09 9.807852741790e-01 1.950903533072e-01 1.119887211602e-09 9.807852729218e-01 1.950903596280e-01 1.198833266509e-09 9.807852718366e-01 1.950903650835e-01 1.281543171260e-09 9.807852708940e-01 1.950903698223e-01 1.368183436104e-09 9.807852700895e-01 1.950903738665e-01 1.458931131020e-09 9.807852694117e-01 1.950903772742e-01 1.553975998174e-09 9.807852688538e-01 1.950903800793e-01 1.653521914618e-09 9.807852684169e-01 1.950903822753e-01 1.757788249833e-09 9.807852681029e-01 1.950903838539e-01 1.867011301193e-09 9.807852679093e-01 1.950903848276e-01 1.981445867379e-09 9.807852677952e-01 1.950903854012e-01 2.101367000640e-09 9.807852677151e-01 1.950903858034e-01 2.227071959560e-09 9.807852676604e-01 1.950903860785e-01 2.358882393904e-09 9.807852676055e-01 1.950903863547e-01 2.497146797995e-09 9.807852675680e-01 1.950903865432e-01 2.642243265873e-09 9.807852675437e-01 1.950903866652e-01 2.794582610170e-09 9.807852675360e-01 1.950903867041e-01 2.954611880732e-09 9.807852675452e-01 1.950903866576e-01 3.122818367862e-09 9.807852676564e-01 1.950903860988e-01 3.299734137849e-09 9.807852679465e-01 1.950903846405e-01 3.485941257897e-09 9.807852684943e-01 1.950903818863e-01 3.682077805486e-09 9.807852692950e-01 1.950903778612e-01 3.888844914088e-09 9.807852703382e-01 1.950903726164e-01 4.107015118241e-09 9.807852716099e-01 1.950903662231e-01 4.337442560787e-09 9.807852731604e-01 1.950903584285e-01 4.581075934093e-09 9.807852750299e-01 1.950903490297e-01 4.838975821106e-09 9.807852771869e-01 1.950903381856e-01 5.112339345620e-09 9.807852798433e-01 1.950903248313e-01 3.631237897424e-09 9.569403343172e-01 2.902846819192e-01 1.773289988635e-09 9.569403304484e-01 2.902846946728e-01 1.908106304477e-09 9.569403275346e-01 2.902847042785e-01 2.049154190646e-09 9.569403250740e-01 2.902847123898e-01 2.196952944997e-09 9.569403229669e-01 2.902847193362e-01 2.351824548911e-09 9.569403211408e-01 2.902847253558e-01 2.514081209462e-09 9.569403195538e-01 2.902847305875e-01 2.684048695348e-09 9.569403181832e-01 2.902847351059e-01 2.862074109619e-09 9.569403170012e-01 2.902847390024e-01 3.048529603135e-09 9.569403160043e-01 2.902847422887e-01 3.243815102849e-09 9.569403151831e-01 2.902847449957e-01 3.448360949634e-09 9.569403145614e-01 2.902847470453e-01 3.662630700509e-09 9.569403141028e-01 2.902847485571e-01 3.887124219992e-09 9.569403137721e-01 2.902847496474e-01 4.122381096490e-09 9.569403135188e-01 2.902847504822e-01 4.368984479883e-09 9.569403132764e-01 2.902847512814e-01 4.627565363982e-09 9.569403130415e-01 2.902847520557e-01 4.898807408044e-09 9.569403128062e-01 2.902847528312e-01 5.183452347128e-09 9.569403125553e-01 2.902847536585e-01 5.482306100683e-09 9.569403123435e-01 2.902847543568e-01 5.796245657117e-09 9.569403122480e-01 2.902847546714e-01 6.126226919496e-09 9.569403123841e-01 2.902847542230e-01 6.473293591692e-09 9.569403128123e-01 2.902847528113e-01 6.838587377819e-09 9.569403136192e-01 2.902847501514e-01 7.223359581195e-09 9.569403148444e-01 2.902847461125e-01 7.628984599908e-09 9.569403165806e-01 2.902847403890e-01 8.056975507724e-09 9.569403188798e-01 2.902847328095e-01 8.509002520182e-09 9.569403217887e-01 2.902847232201e-01 8.986914842762e-09 9.569403252437e-01 2.902847118306e-01 9.492767313402e-09 9.569403292758e-01 2.902846985385e-01 1.002885300680e-08 9.569403344408e-01 2.902846815118e-01 8.039545757866e-09 9.238795301494e-01 3.826834380673e-01 2.879955240275e-09 9.238795256620e-01 3.826834489007e-01 3.098810688298e-09 9.238795222685e-01 3.826834570935e-01 3.327852580216e-09 9.238795193730e-01 3.826834640837e-01 3.567873041747e-09 9.238795168895e-01 3.826834700795e-01 3.819384195321e-09 9.238795147075e-01 3.826834753471e-01 4.082890031111e-09 9.238795127288e-01 3.826834801242e-01 4.358918713037e-09 9.238795109359e-01 3.826834844526e-01 4.648033667693e-09 9.238795093409e-01 3.826834883034e-01 4.950839191864e-09 9.238795079876e-01 3.826834915704e-01 5.267984745289e-09 9.238795068654e-01 3.826834942798e-01 5.600169204806e-09 9.238795059530e-01 3.826834964824e-01 5.948145386632e-09 9.238795052124e-01 3.826834982703e-01 6.312725074970e-09 9.238795046881e-01 3.826834995361e-01 6.694784568653e-09 9.238795043196e-01 3.826835004258e-01 7.095270917584e-09 9.238795040439e-01 3.826835010914e-01 7.515208862638e-09 9.238795037835e-01 3.826835017200e-01 7.955708668389e-09 9.238795034833e-01 3.826835024449e-01 8.417974913831e-09 9.238795032469e-01 3.826835030157e-01 8.903316404783e-09 9.238795031424e-01 3.826835032678e-01 9.413157385113e-09 9.238795031993e-01 3.826835031305e-01 9.949050211843e-09 9.238795033989e-01 3.826835026485e-01 1.051268981336e-08 9.238795038107e-01 3.826835016544e-01 1.110593008721e-08 9.238795045686e-01 3.826834998247e-01 1.173080275202e-08 9.238795059508e-01 3.826834964877e-01 1.238953875538e-08 9.238795080615e-01 3.826834913921e-01 1.308459300198e-08 9.238795109779e-01 3.826834843512e-01 1.381867248148e-08 9.238795146294e-01 3.826834755359e-01 1.459476850131e-08 9.238795190313e-01 3.826834649087e-01 1.541619224459e-08 9.238795242572e-01 3.826834522923e-01 1.628661241125e-08 9.238795304786e-01 3.826834372725e-01 1.397213068817e-08 8.819212607789e-01 4.713967435039e-01 4.181335506751e-09 8.819212571783e-01 4.713967502403e-01 4.498989978886e-09 8.819212546717e-01 4.713967549297e-01 4.831499793469e-09 8.819212525349e-01 4.713967589274e-01 5.179963776239e-09 8.819212507334e-01 4.713967622977e-01 5.545114656900e-09 8.819212491516e-01 4.713967652571e-01 5.927681122809e-09 8.819212477321e-01 4.713967679128e-01 6.328429083943e-09 8.819212463905e-01 4.713967704227e-01 6.748176282532e-09 8.819212451342e-01 4.713967727731e-01 7.187799954986e-09 8.819212439841e-01 4.713967749248e-01 7.648243002594e-09 8.819212429806e-01 4.713967768022e-01 8.130520065333e-09 8.819212421629e-01 4.713967783320e-01 8.635724124982e-09 8.819212414843e-01 4.713967796017e-01 9.165033738490e-09 8.819212408988e-01 4.713967806970e-01 9.719721150880e-09 8.819212403865e-01 4.713967816555e-01 1.030116130703e-08 8.819212399733e-01 4.713967824286e-01 1.091084198863e-08 8.819212396141e-01 4.713967831005e-01 1.155037513129e-08 8.819212392786e-01 4.713967837281e-01 1.222150958329e-08 8.819212389104e-01 4.713967844171e-01 1.292614549546e-08 8.819212384853e-01 4.713967852124e-01 1.366635060762e-08 8.819212380980e-01 4.713967859369e-01 1.444437869958e-08 8.819212379077e-01 4.713967862930e-01 1.526269046579e-08 8.819212379788e-01 4.713967861599e-01 1.612397730961e-08 8.819212384259e-01 4.713967853235e-01 1.703118840307e-08 8.819212393137e-01 4.713967836625e-01 1.798756165966e-08 8.819212408245e-01 4.713967808361e-01 1.899665876760e-08 8.819212430956e-01 4.713967765872e-01 2.006240458810e-08 8.819212462228e-01 4.713967707364e-01 2.118913008089e-08 8.819212502025e-01 4.713967632911e-01 2.238161670387e-08 8.819212549956e-01 4.713967543238e-01 2.364513533435e-08 8.819212610080e-01 4.713967430754e-01 2.120100695803e-08 8.314696073913e-01 5.555702403698e-01 5.627419512681e-09 8.314696065247e-01 5.555702416667e-01 6.054836105664e-09 8.314696063190e-01 5.555702419747e-01 6.502311551270e-09 8.314696062056e-01 5.555702421443e-01 6.971273448845e-09 8.314696061118e-01 5.555702422847e-01 7.462697143243e-09 8.314696059963e-01 5.555702424576e-01 7.977560263218e-09 8.314696058503e-01 5.555702426761e-01 8.516892702179e-09 8.314696056090e-01 5.555702430371e-01 9.081794713668e-09 8.314696052392e-01 5.555702435906e-01 9.673446832459e-09 8.314696046630e-01 5.555702444529e-01 1.029311799073e-08 8.314696040007e-01 5.555702454442e-01 1.094217369753e-08 8.314696033577e-01 5.555702464065e-01 1.162208488921e-08 8.314696028235e-01 5.555702472060e-01 1.233443769931e-08 8.314696023857e-01 5.555702478613e-01 1.308094435080e-08 8.314696020495e-01 5.555702483643e-01 1.386345527843e-08 8.314696017977e-01 5.555702487413e-01 1.468397274607e-08 8.314696017274e-01 5.555702488464e-01 1.554466608783e-08 8.314696018391e-01 5.555702486792e-01 1.644788894010e-08 8.314696020242e-01 5.555702484022e-01 1.739619858829e-08 8.314696021223e-01 5.555702482554e-01 1.839237785814e-08 8.314696020749e-01 5.555702483263e-01 1.943945983239e-08 8.314696018482e-01 5.555702486656e-01 2.054075603707e-08 8.314696016571e-01 5.555702489517e-01 2.169988837290e-08 8.314696015687e-01 5.555702490840e-01 2.292082554991e-08 8.314696016591e-01 5.555702489486e-01 2.420792418659e-08 8.314696019017e-01 5.555702485856e-01 2.556597525020e-08 8.314696023289e-01 5.555702479462e-01 2.700025532085e-08 8.314696030728e-01 5.555702468329e-01 2.851658122982e-08 8.314696043492e-01 5.555702449227e-01 3.012136226713e-08 8.314696062487e-01 5.555702420798e-01 3.182163688981e-08 8.314696078493e-01 5.555702396844e-01 2.944837190748e-08 7.730104469218e-01 6.343932920119e-01 7.162635125505e-09 7.730104501127e-01 6.343932881239e-01 7.706558860278e-09 7.730104533965e-01 6.343932841226e-01 8.276079588985e-09 7.730104564162e-01 6.343932804430e-01 8.872963141833e-09 7.730104592153e-01 6.343932770323e-01 9.498440141397e-09 7.730104617532e-01 6.343932739398e-01 1.015375186804e-08 7.730104640113e-01 6.343932711883e-01 1.084020827750e-08 7.730104659130e-01 6.343932688710e-01 1.155920949747e-08 7.730104673610e-01 6.343932671067e-01 1.231225800891e-08 7.730104684235e-01 6.343932658121e-01 1.310096884991e-08 7.730104691230e-01 6.343932649597e-01 1.392708002702e-08 7.730104695322e-01 6.343932644611e-01 1.479246374009e-08 7.730104697753e-01 6.343932641649e-01 1.569913882927e-08 7.730104698933e-01 6.343932640211e-01 1.664928456777e-08 7.730104699331e-01 6.343932639726e-01 1.764525616242e-08 7.730104699373e-01 6.343932639675e-01 1.868960206358e-08 7.730104699086e-01 6.343932640025e-01 1.978508344232e-08 7.730104698979e-01 6.343932640155e-01 2.093469599333e-08 7.730104698887e-01 6.343932640267e-01 2.214169457440e-08 7.730104697341e-01 6.343932642151e-01 2.340962105289e-08 7.730104692450e-01 6.343932648110e-01 2.474233590554e-08 7.730104683764e-01 6.343932658695e-01 2.614405396195e-08 7.730104671802e-01 6.343932673271e-01 2.761938500917e-08 7.730104656976e-01 6.343932691335e-01 2.917337980991e-08 7.730104638493e-01 6.343932713857e-01 3.081158231078e-08 7.730104615505e-01 6.343932741868e-01 3.254008797186e-08 7.730104587871e-01 6.343932775540e-01 3.436560754215e-08 7.730104558077e-01 6.343932811844e-01 3.629553273756e-08 7.730104528929e-01 6.343932847362e-01 3.833799532580e-08 7.730104502432e-01 6.343932879648e-01 4.050189828047e-08 7.730104470571e-01 6.343932918471e-01 3.839728291094e-08 7.071067737360e-01 7.071067886371e-01 -8.727984919355e-09 7.071067811865e-01 7.071067811865e-01 -9.390683528435e-09 7.071067886371e-01 7.071067737360e-01 -1.008463907738e-08 7.071067951253e-01 7.071067672478e-01 -1.081195208708e-08 7.071068015908e-01 7.071067607823e-01 -1.157411132255e-08 7.071068069961e-01 7.071067553770e-01 -1.237262630586e-08 7.071068114509e-01 7.071067509221e-01 -1.320909235396e-08 7.071068161329e-01 7.071067462402e-01 -1.408521526159e-08 7.071068195408e-01 7.071067428323e-01 -1.500282578751e-08 7.071068219951e-01 7.071067403780e-01 -1.596389189561e-08 7.071068243099e-01 7.071067380632e-01 -1.697053135128e-08 7.071068258900e-01 7.071067364831e-01 -1.802502547259e-08 7.071068271150e-01 7.071067352581e-01 -1.912983422497e-08 7.071068280127e-01 7.071067343604e-01 -2.028761315227e-08 7.071068283082e-01 7.071067340649e-01 -2.150123218680e-08 7.071068286018e-01 7.071067337713e-01 -2.277379668149e-08 7.071068291836e-01 7.071067331895e-01 -2.410867113631e-08 7.071068294718e-01 7.071067329013e-01 -2.550950588600e-08 7.071068297584e-01 7.071067326147e-01 -2.698026710845e-08 7.071068297584e-01 7.071067326147e-01 -2.852527075864e-08 7.071068291836e-01 7.071067331895e-01 -3.014922090486e-08 7.071068286017e-01 7.071067337713e-01 -3.185725322272e-08 7.071068268118e-01 7.071067355612e-01 -3.365498463908e-08 7.071068239869e-01 7.071067383862e-01 -3.554856924200e-08 7.071068206113e-01 7.071067417618e-01 -3.754476144590e-08 7.071068161329e-01 7.071067462402e-01 -3.965098628786e-08 7.071068100425e-01 7.071067523306e-01 -4.187541537910e-08 7.071068029085e-01 7.071067594646e-01 -4.422704371033e-08 7.071067951253e-01 7.071067672478e-01 -4.671575433882e-08 7.071067811865e-01 7.071067811865e-01 -4.935234100186e-08 7.071067737360e-01 7.071067886371e-01 4.770383702770e-08 6.343932743348e-01 7.730104614291e-01 -1.026331347847e-08 6.343932883003e-01 7.730104499679e-01 -1.104249022495e-08 6.343933003681e-01 7.730104400641e-01 -1.185848817737e-08 6.343933110003e-01 7.730104313385e-01 -1.271372611123e-08 6.343933203974e-01 7.730104236265e-01 -1.360994389446e-08 6.343933288126e-01 7.730104167203e-01 -1.454891352001e-08 6.343933363265e-01 7.730104105538e-01 -1.553251004516e-08 6.343933428792e-01 7.730104051761e-01 -1.656273906333e-08 6.343933483873e-01 7.730104006557e-01 -1.764175322357e-08 6.343933528332e-01 7.730103970071e-01 -1.877186660101e-08 6.343933563736e-01 7.730103941015e-01 -1.995556949121e-08 6.343933591379e-01 7.730103918329e-01 -2.119554448828e-08 6.343933612864e-01 7.730103900697e-01 -2.249468426961e-08 6.343933628578e-01 7.730103887801e-01 -2.385611143231e-08 6.343933638711e-01 7.730103879485e-01 -2.528320066539e-08 6.343933644252e-01 7.730103874938e-01 -2.677960359846e-08 6.343933646115e-01 7.730103873409e-01 -2.834927659097e-08 6.343933645545e-01 7.730103873877e-01 -2.999651205076e-08 6.343933644462e-01 7.730103874765e-01 -3.172597370642e-08 6.343933640748e-01 7.730103877813e-01 -3.354273658492e-08 6.343933630611e-01 7.730103886133e-01 -3.545233214275e-08 6.343933609853e-01 7.730103903168e-01 -3.746079948453e-08 6.343933575746e-01 7.730103931159e-01 -3.957474326683e-08 6.343933528551e-01 7.730103969891e-01 -4.180139948369e-08 6.343933467775e-01 7.730104019769e-01 -4.414870943224e-08 6.343933390109e-01 7.730104083508e-01 -4.662540177538e-08 6.343933293501e-01 7.730104162791e-01 -4.924108018999e-08 6.343933178741e-01 7.730104256973e-01 -5.200631003793e-08 6.343933048673e-01 7.730104363717e-01 -5.493268669253e-08 6.343932905588e-01 7.730104481144e-01 -5.803284622753e-08 6.343932740283e-01 7.730104616806e-01 -5.701038707458e-08 5.555702213292e-01 8.314696201138e-01 -1.170961904134e-08 5.555702397859e-01 8.314696077815e-01 -1.259850102480e-08 5.555702554044e-01 8.314695973455e-01 -1.352945893337e-08 5.555702691079e-01 8.314695881891e-01 -1.450520120109e-08 5.555702811237e-01 8.314695801604e-01 -1.552770207218e-08 5.555702917301e-01 8.314695730734e-01 -1.659898018386e-08 5.555703011665e-01 8.314695667682e-01 -1.772117391477e-08 5.555703095729e-01 8.314695611513e-01 -1.889657121337e-08 5.555703168348e-01 8.314695562990e-01 -2.012762798619e-08 5.555703228698e-01 8.314695522665e-01 -2.141698434690e-08 5.555703277191e-01 8.314695490264e-01 -2.276748145859e-08 5.555703315774e-01 8.314695464483e-01 -2.418217989433e-08 5.555703346526e-01 8.314695443935e-01 -2.566437994935e-08 5.555703369311e-01 8.314695428711e-01 -2.721764422606e-08 5.555703382735e-01 8.314695419741e-01 -2.884582292403e-08 5.555703387653e-01 8.314695416455e-01 -3.055308215097e-08 5.555703386572e-01 8.314695417178e-01 -3.234393575226e-08 5.555703381617e-01 8.314695420488e-01 -3.422328100058e-08 5.555703372883e-01 8.314695426324e-01 -3.619643883498e-08 5.555703358517e-01 8.314695435923e-01 -3.826919934113e-08 5.555703336827e-01 8.314695450416e-01 -4.044787334647e-08 5.555703307137e-01 8.314695470254e-01 -4.273935076737e-08 5.555703268083e-01 8.314695496349e-01 -4.515116680720e-08 5.555703215786e-01 8.314695531293e-01 -4.769157661627e-08 5.555703145381e-01 8.314695578336e-01 -5.036963936943e-08 5.555703054272e-01 8.314695639214e-01 -5.319531111239e-08 5.555702941321e-01 8.314695714685e-01 -5.617954333813e-08 5.555702803189e-01 8.314695806981e-01 -5.933437819376e-08 5.555702637403e-01 8.314695917756e-01 -6.267301914433e-08 5.555702442227e-01 8.314696048169e-01 -6.620982730689e-08 5.555702207060e-01 8.314696205303e-01 -6.595928819354e-08 4.713967230555e-01 8.819212717089e-01 -1.301132083047e-08 4.713967431063e-01 8.819212609915e-01 -1.399891927084e-08 4.713967602781e-01 8.819212518129e-01 -1.503333687477e-08 4.713967753884e-01 8.819212437363e-01 -1.611753195191e-08 4.713967887435e-01 8.819212365979e-01 -1.725368743072e-08 4.713968005577e-01 8.819212302830e-01 -1.844404330980e-08 4.713968110069e-01 8.819212246978e-01 -1.969097476635e-08 4.713968201504e-01 8.819212198106e-01 -2.099702378022e-08 4.713968281145e-01 8.819212155536e-01 -2.236491915956e-08 4.713968349983e-01 8.819212118742e-01 -2.379759448928e-08 4.713968407224e-01 8.819212088146e-01 -2.529820675502e-08 4.713968452782e-01 8.819212063794e-01 -2.687015668922e-08 4.713968486863e-01 8.819212045578e-01 -2.851711137429e-08 4.713968511543e-01 8.819212032386e-01 -3.024302941427e-08 4.713968528072e-01 8.819212023551e-01 -3.205218901628e-08 4.713968535723e-01 8.819212019461e-01 -3.394921939247e-08 4.713968534039e-01 8.819212020362e-01 -3.593913603152e-08 4.713968524077e-01 8.819212025687e-01 -3.802738047906e-08 4.713968508300e-01 8.819212034119e-01 -4.021986515433e-08 4.713968487838e-01 8.819212045056e-01 -4.252302387257e-08 4.713968459344e-01 8.819212060287e-01 -4.494386890436e-08 4.713968418432e-01 8.819212082155e-01 -4.749005580115e-08 4.713968362959e-01 8.819212111806e-01 -5.016995698299e-08 4.713968293394e-01 8.819212148989e-01 -5.299274487547e-08 4.713968209148e-01 8.819212194019e-01 -5.596848476875e-08 4.713968105783e-01 8.819212249269e-01 -5.910823689774e-08 4.713967977712e-01 8.819212317725e-01 -6.242416421085e-08 4.713967824022e-01 8.819212399874e-01 -6.592963527195e-08 4.713967647177e-01 8.819212494399e-01 -6.963929549279e-08 4.713967450522e-01 8.819212599514e-01 -7.356904725231e-08 4.713967226397e-01 8.819212719311e-01 -7.420663872399e-08 3.826834166644e-01 9.238795390147e-01 -1.411839511454e-08 3.826834368069e-01 9.238795306714e-01 -1.518992759233e-08 3.826834539239e-01 9.238795235813e-01 -1.631232874140e-08 3.826834690347e-01 9.238795173222e-01 -1.748875736881e-08 3.826834823403e-01 9.238795118109e-01 -1.872157132228e-08 3.826834940934e-01 9.238795069426e-01 -2.001319813379e-08 3.826835045485e-01 9.238795026119e-01 -2.136621418505e-08 3.826835138477e-01 9.238794987601e-01 -2.278337746944e-08 3.826835220223e-01 9.238794953741e-01 -2.426764886502e-08 3.826835289957e-01 9.238794924856e-01 -2.582221146411e-08 3.826835348013e-01 9.238794900808e-01 -2.745049082118e-08 3.826835395710e-01 9.238794881051e-01 -2.915617704971e-08 3.826835432325e-01 9.238794865885e-01 -3.094324925747e-08 3.826835457072e-01 9.238794855635e-01 -3.281600278124e-08 3.826835469357e-01 9.238794850546e-01 -3.477907969697e-08 3.826835470610e-01 9.238794850027e-01 -3.683750302684e-08 3.826835463490e-01 9.238794852976e-01 -3.899671506868e-08 3.826835448703e-01 9.238794859101e-01 -4.126262038397e-08 3.826835426537e-01 9.238794868282e-01 -4.364163425999e-08 3.826835396823e-01 9.238794880590e-01 -4.614073762878e-08 3.826835359572e-01 9.238794896020e-01 -4.876753929887e-08 3.826835314717e-01 9.238794914600e-01 -5.153034627636e-08 3.826835259951e-01 9.238794937285e-01 -5.443824325374e-08 3.826835192524e-01 9.238794965214e-01 -5.750118234585e-08 3.826835111348e-01 9.238794998838e-01 -6.073008377515e-08 3.826835013948e-01 9.238795039182e-01 -6.413694636678e-08 3.826834897223e-01 9.238795087532e-01 -6.773496295123e-08 3.826834757369e-01 9.238795145461e-01 -7.153862778832e-08 3.826834590790e-01 9.238795214460e-01 -7.556380603948e-08 3.826834395801e-01 9.238795295227e-01 -7.982769696909e-08 3.826834161893e-01 9.238795392115e-01 -8.143549979854e-08 2.902846594015e-01 9.569403411479e-01 -1.498829758234e-08 2.902846766728e-01 9.569403359087e-01 -1.612575612486e-08 2.902846915385e-01 9.569403313992e-01 -1.731728346783e-08 2.902847047468e-01 9.569403273925e-01 -1.856618183686e-08 2.902847163983e-01 9.569403238580e-01 -1.987494356864e-08 2.902847266344e-01 9.569403207530e-01 -2.124614270877e-08 2.902847355626e-01 9.569403180446e-01 -2.268251345939e-08 2.902847433660e-01 9.569403156775e-01 -2.418698344963e-08 2.902847502756e-01 9.569403135815e-01 -2.576269590157e-08 2.902847563408e-01 9.569403117416e-01 -2.741303002386e-08 2.902847614994e-01 9.569403101768e-01 -2.914162239809e-08 2.902847656481e-01 9.569403089183e-01 -3.095239041465e-08 2.902847688453e-01 9.569403079484e-01 -3.284955828301e-08 2.902847712422e-01 9.569403072213e-01 -3.483768600257e-08 2.902847727655e-01 9.569403067592e-01 -3.692170170452e-08 2.902847732988e-01 9.569403065975e-01 -3.910693785769e-08 2.902847728280e-01 9.569403067403e-01 -4.139917189780e-08 2.902847714770e-01 9.569403071501e-01 -4.380467203118e-08 2.902847694824e-01 9.569403077552e-01 -4.633024883322e-08 2.902847668375e-01 9.569403085575e-01 -4.898331345062e-08 2.902847632472e-01 9.569403096466e-01 -5.177194338844e-08 2.902847586042e-01 9.569403110550e-01 -5.470495714536e-08 2.902847530242e-01 9.569403127477e-01 -5.779199872932e-08 2.902847465872e-01 9.569403147004e-01 -6.104363304172e-08 2.902847390768e-01 9.569403169786e-01 -6.447145224746e-08 2.902847300308e-01 9.569403197227e-01 -6.808819198970e-08 2.902847190716e-01 9.569403230471e-01 -7.190785214035e-08 2.902847062668e-01 9.569403269314e-01 -7.594580781236e-08 2.902846919380e-01 9.569403312780e-01 -8.021887591068e-08 2.902846763342e-01 9.569403360114e-01 -8.474526015216e-08 2.902846591145e-01 9.569403412349e-01 -8.736807022868e-08 1.950903021040e-01 9.807852843640e-01 -1.558759825751e-08 1.950903155595e-01 9.807852816875e-01 -1.677044138629e-08 1.950903273839e-01 9.807852793355e-01 -1.800958108353e-08 1.950903379573e-01 9.807852772323e-01 -1.930840039984e-08 1.950903471536e-01 9.807852754031e-01 -2.066948053519e-08 1.950903550680e-01 9.807852738288e-01 -2.209549542037e-08 1.950903619773e-01 9.807852724545e-01 -2.358928768967e-08 1.950903681079e-01 9.807852712350e-01 -2.515390174213e-08 1.950903734921e-01 9.807852701640e-01 -2.679260636528e-08 1.950903781309e-01 9.807852692413e-01 -2.850891582132e-08 1.950903820535e-01 9.807852684610e-01 -3.030661207344e-08 1.950903852941e-01 9.807852678165e-01 -3.218976913064e-08 1.950903879361e-01 9.807852672909e-01 -3.416278006126e-08 1.950903898215e-01 9.807852669159e-01 -3.623038712756e-08 1.950903908310e-01 9.807852667151e-01 -3.839771543924e-08 1.950903909991e-01 9.807852666817e-01 -4.067031062845e-08 1.950903904389e-01 9.807852667931e-01 -4.305418111980e-08 1.950903893059e-01 9.807852670185e-01 -4.555584567815e-08 1.950903876319e-01 9.807852673514e-01 -4.818238706951e-08 1.950903853241e-01 9.807852678105e-01 -5.094151265110e-08 1.950903823105e-01 9.807852684099e-01 -5.384162288271e-08 1.950903786608e-01 9.807852691359e-01 -5.689188879077e-08 1.950903745006e-01 9.807852699634e-01 -6.010233972638e-08 1.950903698203e-01 9.807852708944e-01 -6.348396234018e-08 1.950903643956e-01 9.807852719734e-01 -6.704881105093e-08 1.950903578256e-01 9.807852732803e-01 -7.081012829822e-08 1.950903498638e-01 9.807852748640e-01 -7.478246848081e-08 1.950903404066e-01 9.807852767451e-01 -7.898180949494e-08 1.950903295073e-01 9.807852789131e-01 -8.342561451495e-08 1.950903170628e-01 9.807852813885e-01 -8.813275952269e-08 1.950903020781e-01 9.807852843692e-01 -9.177636742012e-08 9.801711803432e-02 9.951847288681e-01 -1.589326635039e-08 9.801713010545e-02 9.951847276792e-01 -1.709920848936e-08 9.801713936643e-02 9.951847267671e-01 -1.836261690404e-08 9.801714592893e-02 9.951847261207e-01 -1.968688991975e-08 9.801715097518e-02 9.951847256237e-01 -2.107464856054e-08 9.801715506974e-02 9.951847252204e-01 -2.252861611047e-08 9.801715850034e-02 9.951847248825e-01 -2.405169003248e-08 9.801716144936e-02 9.951847245921e-01 -2.564697415198e-08 9.801716405315e-02 9.951847243356e-01 -2.731780126604e-08 9.801716637013e-02 9.951847241074e-01 -2.906775448584e-08 9.801716840416e-02 9.951847239071e-01 -3.090068986633e-08 9.801717010944e-02 9.951847237391e-01 -3.282076125360e-08 9.801717150443e-02 9.951847236017e-01 -3.483244786412e-08 9.801717256580e-02 9.951847234972e-01 -3.694058495166e-08 9.801717333559e-02 9.951847234214e-01 -3.915039808170e-08 9.801717378890e-02 9.951847233767e-01 -4.146754153429e-08 9.801717388251e-02 9.951847233675e-01 -4.389814147762e-08 9.801717368467e-02 9.951847233870e-01 -4.644884448917e-08 9.801717322403e-02 9.951847234324e-01 -4.912687223944e-08 9.801717243685e-02 9.951847235099e-01 -5.194008315367e-08 9.801717133703e-02 9.951847236182e-01 -5.489704223526e-08 9.801716975203e-02 9.951847237743e-01 -5.800710013197e-08 9.801716763084e-02 9.951847239833e-01 -6.128048265458e-08 9.801716498671e-02 9.951847242437e-01 -6.472839141665e-08 9.801716169331e-02 9.951847245680e-01 -6.836311604943e-08 9.801715757692e-02 9.951847249735e-01 -7.219815594616e-08 9.801715242972e-02 9.951847254804e-01 -7.624834519165e-08 9.801714587482e-02 9.951847261260e-01 -8.052996297022e-08 9.801713769369e-02 9.951847269318e-01 -8.506078918232e-08 9.801712793936e-02 9.951847278925e-01 -8.986001458527e-08 9.801711857172e-02 9.951847288152e-01 -9.449098113088e-08 1.843867659763e-04 9.999999830008e-01 -1.589321906439e-08 1.272716470393e-04 9.999999919010e-01 -1.718194345310e-08 1.144330793050e-04 9.999999934525e-01 -1.845146501081e-08 1.110555941408e-04 9.999999938333e-01 -1.978214561020e-08 1.101920563414e-04 9.999999939289e-01 -2.117661899095e-08 1.100179242864e-04 9.999999939480e-01 -2.263762163937e-08 1.100356983328e-04 9.999999939461e-01 -2.416806503664e-08 1.101051125263e-04 9.999999939384e-01 -2.577106800061e-08 1.101855745994e-04 9.999999939296e-01 -2.744997944719e-08 1.102652753654e-04 9.999999939208e-01 -2.920839984577e-08 1.103409092776e-04 9.999999939124e-01 -3.105020395895e-08 1.104117964230e-04 9.999999939046e-01 -3.297956574332e-08 1.104780065822e-04 9.999999938973e-01 -3.500098604487e-08 1.105398714516e-04 9.999999938905e-01 -3.711932346837e-08 1.105976646444e-04 9.999999938841e-01 -3.933982889840e-08 1.106516268430e-04 9.999999938781e-01 -4.166818403575e-08 1.107019030789e-04 9.999999938725e-01 -4.411054469702e-08 1.107483133478e-04 9.999999938674e-01 -4.667358953089e-08 1.107900294009e-04 9.999999938628e-01 -4.936457502548e-08 1.108247754515e-04 9.999999938589e-01 -5.219139761060e-08 1.108468471950e-04 9.999999938565e-01 -5.516266381501e-08 1.108431605858e-04 9.999999938569e-01 -5.828776959879e-08 1.107843145628e-04 9.999999938634e-01 -6.157699015390e-08 1.106056202097e-04 9.999999938832e-01 -6.504158123428e-08 1.101670245710e-04 9.999999939316e-01 -6.869389200135e-08 1.091698077454e-04 9.999999940410e-01 -7.254748742207e-08 1.069859739348e-04 9.999999942770e-01 -7.661727353196e-08 1.023131432359e-04 9.999999947660e-01 -8.091960833701e-08 9.248528849297e-05 9.999999957232e-01 -8.547235749123e-08 7.211308338677e-05 9.999999973998e-01 -9.029480416734e-08 2.976287335273e-05 9.999999995571e-01 -9.494817495655e-08 
        </DataArray>
      </PointData>
      <CellData>
        <DataArray type="Int32" Name="MatGroup" format="ascii">
          0 0 0 0 0 0 0 0 0 0 0 0 0 0 0 0 0 0 0 0 0 0 0 0 0 0 0 0 0 0 0 0 0 0 0 0 0 0 0 0 0 0 0 0 0 0 0 0 0 0 0 0 0 0 0 0 0 0 0 0 0 0 0 0 0 0 0 0 0 0 0 0 0 0 0 0 0 0 0 0 0 0 0 0 0 0 0 0 0 0 0 0 0 0 0 0 0 0 0 0 0 0 0 0 0 0 0 0 0 0 0 0 0 0 0 0 0 0 0 0 0 0 0 0 0 0 0 0 0 0 0 0 0 0 0 0 0 0 0 0 0 0 0 0 0 0 0 0 0 0 0 0 0 0 0 0 0 0 0 0 0 0 0 0 0 0 0 0 0 0 0 0 0 0 0 0 0 0 0 0 0 0 0 0 0 0 0 0 0 0 0 0 0 0 0 0 0 0 0 0 0 0 0 0 0 0 0 0 0 0 0 0 0 0 0 0 0 0 0 0 0 0 0 0 0 0 0 0 0 0 0 0 0 0 0 0 0 0 0 0 0 0 0 0 0 0 0 0 0 0 0 0 0 0 0 0 0 0 0 0 0 0 0 0 0 0 0 0 0 0 0 0 0 0 0 0 0 0 0 0 0 0 0 0 0 0 0 0 0 0 0 0 0 0 0 0 0 0 0 0 0 0 0 0 0 0 0 0 0 0 0 0 0 0 0 0 0 0 0 0 0 0 0 0 0 0 0 0 0 0 0 0 0 0 0 0 0 0 0 0 0 0 0 0 0 0 0 0 0 0 0 0 0 0 0 0 0 0 0 0 0 0 0 0 0 0 0 0 0 0 0 0 0 0 0 0 0 0 0 0 0 0 0 0 0 0 0 0 0 0 0 0 0 0 0 0 0 0 0 0 0 0 0 0 0 0 0 0 0 0 0 0 0 0 0 0 0 0 0 0 0 0 0 0 0 0 0 0 0 0 0 0 0 0 0 0 0 0 0 0 0 0 0 0 0 0 0 0 0 0 0 0 0 0 0 0 0 0 0 0 0 0 0 0 0 0 0 0 0 0 0 0 0 0 0 0 0 0 0 0 
        </DataArray>
      </CellData>
    </Piece>
  </UnstructuredGrid>
</VTKFile>
