<?xml version="1.0"?>
<!-- Time step: 1 | Time: 1.000000000000e+00 -->
<VTKFile type="UnstructuredGrid" version="0.1" byte_order="LittleEndian">
  <UnstructuredGrid>
    <Piece NumberOfPoints="527" NumberOfCells="480">
      <Points>
        <DataArray type="Float64" NumberOfComponents="3" format="ascii">
          1.750000000000e-01 0.000000000000e+00 0.000000000000e+00
          1.766666666667e-01 0.000000000000e+00 0.000000000000e+00
          1.783333333333e-01 0.000000000000e+00 0.000000000000e+00
          1.800000000000e-01 0.000000000000e+00 0.000000000000e+00
          1.816666666667e-01 0.000000000000e+00 0.000000000000e+00
          1.833333333333e-01 0.000000000000e+00 0.000000000000e+00
          1.850000000000e-01 0.000000000000e+00 0.000000000000e+00
          1.866666666667e-01 0.000000000000e+00 0.000000000000e+00
          1.883333333333e-01 0.000000000000e+00 0.000000000000e+00
          1.900000000000e-01 0.000000000000e+00 0.000000000000e+00
          1.916666666667e-01 0.000000000000e+00 0.000000000000e+00
          1.933333333333e-01 0.000000000000e+00 0.000000000000e+00
          1.950000000000e-01 0.000000000000e+00 0.000000000000e+00
          1.966666666667e-01 0.000000000000e+00 0.000000000000e+00
          1.983333333333e-01 0.000000000000e+00 0.000000000000e+00
          2.000000000000e-01 0.000000000000e+00 0.000000000000e+00
          2.016666666667e-01 0.000000000000e+00 0.000000000000e+00
          2.033333333333e-01 0.000000000000e+00 0.000000000000e+00
          2.050000000000e-01 0.000000000000e+00 0.000000000000e+00
          2.066666666667e-01 0.000000000000e+00 0.000000000000e+00
          2.083333333333e-01 0.000000000000e+00 0.000000000000e+00
          2.100000000000e-01 0.000000000000e+00 0.000000000000e+00
          2.116666666667e-01 0.000000000000e+00 0.000000000000e+00
          2.133333333333e-01 0.000000000000e+00 0.000000000000e+00
          2.150000000000e-01 0.000000000000e+00 0.000000000000e+00
          2.166666666667e-01 0.000000000000e+00 0.000000000000e+00
          2.183333333333e-01 0.000000000000e+00 0.000000000000e+00
          2.200000000000e-01 0.000000000000e+00 0.000000000000e+00
          2.216666666667e-01 0.000000000000e+00 0.000000000000e+00
          2.233333333333e-01 0.000000000000e+00 0.000000000000e+00
          2.250000000000e-01 0.000000000000e+00 0.000000000000e+00
          1.741573271428e-01 1.715299981026e-02 0.000000000000e+00
          1.758159683536e-01 1.731636171321e-02 0.000000000000e+00
          1.774746095645e-01 1.747972361617e-02 0.000000000000e+00
          1.791332507754e-01 1.764308551912e-02 0.000000000000e+00
          1.807918919863e-01 1.780644742208e-02 0.000000000000e+00
          1.824505331972e-01 1.796980932503e-02 0.000000000000e+00
          1.841091744081e-01 1.813317122799e-02 0.000000000000e+00
          1.857678156189e-01 1.829653313094e-02 0.000000000000e+00
          1.874264568298e-01 1.845989503390e-02 0.000000000000e+00
          1.890850980407e-01 1.862325693685e-02 0.000000000000e+00
          1.907437392516e-01 1.878661883981e-02 0.000000000000e+00
          1.924023804625e-01 1.894998074276e-02 0.000000000000e+00
          1.940610216734e-01 1.911334264571e-02 0.000000000000e+00
          1.957196628842e-01 1.927670454867e-02 0.000000000000e+00
          1.973783040951e-01 1.944006645162e-02 0.000000000000e+00
          1.990369453060e-01 1.960342835458e-02 0.000000000000e+00
          2.006955865169e-01 1.976679025753e-02 0.000000000000e+00
          2.023542277278e-01 1.993015216049e-02 0.000000000000e+00
          2.040128689387e-01 2.009351406344e-02 0.000000000000e+00
          2.056715101495e-01 2.025687596640e-02 0.000000000000e+00
          2.073301513604e-01 2.042023786935e-02 0.000000000000e+00
          2.089887925713e-01 2.058359977231e-02 0.000000000000e+00
          2.106474337822e-01 2.074696167526e-02 0.000000000000e+00
          2.123060749931e-01 2.091032357822e-02 0.000000000000e+00
          2.139647162040e-01 2.107368548117e-02 0.000000000000e+00
          2.156233574148e-01 2.123704738413e-02 0.000000000000e+00
          2.172819986257e-01 2.140040928708e-02 0.000000000000e+00
          2.189406398366e-01 2.156377119004e-02 0.000000000000e+00
          2.205992810475e-01 2.172713309299e-02 0.000000000000e+00
          2.222579222584e-01 2.189049499595e-02 0.000000000000e+00
          2.239165634693e-01 2.205385689890e-02 0.000000000000e+00
          1.716374239715e-01 3.414080685068e-02 0.000000000000e+00
          1.732720661046e-01 3.446595739212e-02 0.000000000000e+00
          1.749067082377e-01 3.479110793355e-02 0.000000000000e+00
          1.765413503707e-01 3.511625847499e-02 0.000000000000e+00
          1.781759925038e-01 3.544140901642e-02 0.000000000000e+00
          1.798106346368e-01 3.576655955786e-02 0.000000000000e+00
          1.814452767699e-01 3.609171009929e-02 0.000000000000e+00
          1.830799189030e-01 3.641686064073e-02 0.000000000000e+00
          1.847145610360e-01 3.674201118216e-02 0.000000000000e+00
          1.863492031691e-01 3.706716172360e-02 0.000000000000e+00
          1.879838453022e-01 3.739231226503e-02 0.000000000000e+00
          1.896184874352e-01 3.771746280647e-02 0.000000000000e+00
          1.912531295683e-01 3.804261334790e-02 0.000000000000e+00
          1.928877717013e-01 3.836776388934e-02 0.000000000000e+00
          1.945224138344e-01 3.869291443077e-02 0.000000000000e+00
          1.961570559675e-01 3.901806497221e-02 0.000000000000e+00
          1.977916981005e-01 3.934321551364e-02 0.000000000000e+00
          1.994263402336e-01 3.966836605508e-02 0.000000000000e+00
          2.010609823667e-01 3.999351659651e-02 0.000000000000e+00
          2.026956244997e-01 4.031866713795e-02 0.000000000000e+00
          2.043302666328e-01 4.064381767938e-02 0.000000000000e+00
          2.059649087658e-01 4.096896822082e-02 0.000000000000e+00
          2.075995508989e-01 4.129411876225e-02 0.000000000000e+00
          2.092341930320e-01 4.161926930369e-02 0.000000000000e+00
          2.108688351650e-01 4.194441984512e-02 0.000000000000e+00
          2.125034772981e-01 4.226957038656e-02 0.000000000000e+00
          2.141381194312e-01 4.259472092799e-02 0.000000000000e+00
          2.157727615642e-01 4.291987146943e-02 0.000000000000e+00
          2.174074036973e-01 4.324502201086e-02 0.000000000000e+00
          2.190420458303e-01 4.357017255230e-02 0.000000000000e+00
          2.206766879634e-01 4.389532309373e-02 0.000000000000e+00
          1.674645585321e-01 5.079981924816e-02 0.000000000000e+00
          1.690594590896e-01 5.128362705053e-02 0.000000000000e+00
          1.706543596470e-01 5.176743485289e-02 0.000000000000e+00
          1.722492602045e-01 5.225124265525e-02 0.000000000000e+00
          1.738441607619e-01 5.273505045762e-02 0.000000000000e+00
          1.754390613194e-01 5.321885825998e-02 0.000000000000e+00
          1.770339618768e-01 5.370266606234e-02 0.000000000000e+00
          1.786288624342e-01 5.418647386471e-02 0.000000000000e+00
          1.802237629917e-01 5.467028166707e-02 0.000000000000e+00
          1.818186635491e-01 5.515408946943e-02 0.000000000000e+00
          1.834135641066e-01 5.563789727180e-02 0.000000000000e+00
          1.850084646640e-01 5.612170507416e-02 0.000000000000e+00
          1.866033652215e-01 5.660551287652e-02 0.000000000000e+00
          1.881982657789e-01 5.708932067889e-02 0.000000000000e+00
          1.897931663364e-01 5.757312848125e-02 0.000000000000e+00
          1.913880668938e-01 5.805693628361e-02 0.000000000000e+00
          1.929829674513e-01 5.854074408598e-02 0.000000000000e+00
          1.945778680087e-01 5.902455188834e-02 0.000000000000e+00
          1.961727685662e-01 5.950835969070e-02 0.000000000000e+00
          1.977676691236e-01 5.999216749307e-02 0.000000000000e+00
          1.993625696811e-01 6.047597529543e-02 0.000000000000e+00
          2.009574702385e-01 6.095978309779e-02 0.000000000000e+00
          2.025523707960e-01 6.144359090016e-02 0.000000000000e+00
          2.041472713534e-01 6.192739870252e-02 0.000000000000e+00
          2.057421719109e-01 6.241120650488e-02 0.000000000000e+00
          2.073370724683e-01 6.289501430725e-02 0.000000000000e+00
          2.089319730258e-01 6.337882210961e-02 0.000000000000e+00
          2.105268735832e-01 6.386262991198e-02 0.000000000000e+00
          2.121217741407e-01 6.434643771434e-02 0.000000000000e+00
          2.137166746981e-01 6.483024551670e-02 0.000000000000e+00
          2.153115752556e-01 6.531405331907e-02 0.000000000000e+00
          1.616789178010e-01 6.696960160183e-02 0.000000000000e+00
          1.632187170181e-01 6.760740733138e-02 0.000000000000e+00
          1.647585162353e-01 6.824521306092e-02 0.000000000000e+00
          1.662983154524e-01 6.888301879046e-02 0.000000000000e+00
          1.678381146696e-01 6.952082452000e-02 0.000000000000e+00
          1.693779138867e-01 7.015863024954e-02 0.000000000000e+00
          1.709177131039e-01 7.079643597908e-02 0.000000000000e+00
          1.724575123210e-01 7.143424170862e-02 0.000000000000e+00
          1.739973115382e-01 7.207204743817e-02 0.000000000000e+00
          1.755371107553e-01 7.270985316771e-02 0.000000000000e+00
          1.770769099725e-01 7.334765889725e-02 0.000000000000e+00
          1.786167091896e-01 7.398546462679e-02 0.000000000000e+00
          1.801565084068e-01 7.462327035633e-02 0.000000000000e+00
          1.816963076239e-01 7.526107608587e-02 0.000000000000e+00
          1.832361068411e-01 7.589888181541e-02 0.000000000000e+00
          1.847759060582e-01 7.653668754495e-02 0.000000000000e+00
          1.863157052754e-01 7.717449327450e-02 0.000000000000e+00
          1.878555044926e-01 7.781229900404e-02 0.000000000000e+00
          1.893953037097e-01 7.845010473358e-02 0.000000000000e+00
          1.909351029269e-01 7.908791046312e-02 0.000000000000e+00
          1.924749021440e-01 7.972571619266e-02 0.000000000000e+00
          1.940147013612e-01 8.036352192220e-02 0.000000000000e+00
          1.955545005783e-01 8.100132765174e-02 0.000000000000e+00
          1.970942997955e-01 8.163913338128e-02 0.000000000000e+00
          1.986340990126e-01 8.227693911083e-02 0.000000000000e+00
          2.001738982298e-01 8.291474484037e-02 0.000000000000e+00
          2.017136974469e-01 8.355255056991e-02 0.000000000000e+00
          2.032534966641e-01 8.419035629945e-02 0.000000000000e+00
          2.047932958812e-01 8.482816202899e-02 0.000000000000e+00
          2.063330950984e-01 8.546596775853e-02 0.000000000000e+00
          2.078728943155e-01 8.610377348807e-02 0.000000000000e+00
          1.543362206627e-01 8.249443006373e-02 0.000000000000e+00
          1.558060894310e-01 8.328009130244e-02 0.000000000000e+00
          1.572759581992e-01 8.406575254114e-02 0.000000000000e+00
          1.587458269674e-01 8.485141377984e-02 0.000000000000e+00
          1.602156957356e-01 8.563707501854e-02 0.000000000000e+00
          1.616855645038e-01 8.642273625724e-02 0.000000000000e+00
          1.631554332720e-01 8.720839749595e-02 0.000000000000e+00
          1.646253020403e-01 8.799405873465e-02 0.000000000000e+00
          1.660951708085e-01 8.877971997335e-02 0.000000000000e+00
          1.675650395767e-01 8.956538121205e-02 0.000000000000e+00
          1.690349083449e-01 9.035104245076e-02 0.000000000000e+00
          1.705047771131e-01 9.113670368946e-02 0.000000000000e+00
          1.719746458813e-01 9.192236492816e-02 0.000000000000e+00
          1.734445146496e-01 9.270802616686e-02 0.000000000000e+00
          1.749143834178e-01 9.349368740556e-02 0.000000000000e+00
          1.763842521860e-01 9.427934864427e-02 0.000000000000e+00
          1.778541209542e-01 9.506500988297e-02 0.000000000000e+00
          1.793239897224e-01 9.585067112167e-02 0.000000000000e+00
          1.807938584906e-01 9.663633236037e-02 0.000000000000e+00
          1.822637272589e-01 9.742199359908e-02 0.000000000000e+00
          1.837335960271e-01 9.820765483778e-02 0.000000000000e+00
          1.852034647953e-01 9.899331607648e-02 0.000000000000e+00
          1.866733335635e-01 9.977897731518e-02 0.000000000000e+00
          1.881432023317e-01 1.005646385539e-01 0.000000000000e+00
          1.896130710999e-01 1.013502997926e-01 0.000000000000e+00
          1.910829398682e-01 1.021359610313e-01 0.000000000000e+00
          1.925528086364e-01 1.029216222700e-01 0.000000000000e+00
          1.940226774046e-01 1.037072835087e-01 0.000000000000e+00
          1.954925461728e-01 1.044929447474e-01 0.000000000000e+00
          1.969624149410e-01 1.052786059861e-01 0.000000000000e+00
          1.984322837092e-01 1.060642672248e-01 0.000000000000e+00
          1.455071813069e-01 9.722479204462e-02 0.000000000000e+00
          1.468929639860e-01 9.815074244505e-02 0.000000000000e+00
          1.482787466651e-01 9.907669284547e-02 0.000000000000e+00
          1.496645293442e-01 1.000026432459e-01 0.000000000000e+00
          1.510503120234e-01 1.009285936463e-01 0.000000000000e+00
          1.524360947025e-01 1.018545440467e-01 0.000000000000e+00
          1.538218773816e-01 1.027804944472e-01 0.000000000000e+00
          1.552076600607e-01 1.037064448476e-01 0.000000000000e+00
          1.565934427398e-01 1.046323952480e-01 0.000000000000e+00
          1.579792254189e-01 1.055583456484e-01 0.000000000000e+00
          1.593650080980e-01 1.064842960489e-01 0.000000000000e+00
          1.607507907772e-01 1.074102464493e-01 0.000000000000e+00
          1.621365734563e-01 1.083361968497e-01 0.000000000000e+00
          1.635223561354e-01 1.092621472501e-01 0.000000000000e+00
          1.649081388145e-01 1.101880976506e-01 0.000000000000e+00
          1.662939214936e-01 1.111140480510e-01 0.000000000000e+00
          1.676797041727e-01 1.120399984514e-01 0.000000000000e+00
          1.690654868518e-01 1.129659488518e-01 0.000000000000e+00
          1.704512695309e-01 1.138918992523e-01 0.000000000000e+00
          1.718370522101e-01 1.148178496527e-01 0.000000000000e+00
          1.732228348892e-01 1.157438000531e-01 0.000000000000e+00
          1.746086175683e-01 1.166697504535e-01 0.000000000000e+00
          1.759944002474e-01 1.175957008540e-01 0.000000000000e+00
          1.773801829265e-01 1.185216512544e-01 0.000000000000e+00
          1.787659656056e-01 1.194476016548e-01 0.000000000000e+00
          1.801517482847e-01 1.203735520552e-01 0.000000000000e+00
          1.815375309639e-01 1.212995024557e-01 0.000000000000e+00
          1.829233136430e-01 1.222254528561e-01 0.000000000000e+00
          1.843090963221e-01 1.231514032565e-01 0.000000000000e+00
          1.856948790012e-01 1.240773536569e-01 0.000000000000e+00
          1.870806616803e-01 1.250033040574e-01 0.000000000000e+00
          1.352768282114e-01 1.110188261020e-01 0.000000000000e+00
          1.365651789563e-01 1.120761482554e-01 0.000000000000e+00
          1.378535297011e-01 1.131334704087e-01 0.000000000000e+00
          1.391418804460e-01 1.141907925621e-01 0.000000000000e+00
          1.404302311909e-01 1.152481147154e-01 0.000000000000e+00
          1.417185819357e-01 1.163054368688e-01 0.000000000000e+00
          1.430069326806e-01 1.173627590221e-01 0.000000000000e+00
          1.442952834255e-01 1.184200811755e-01 0.000000000000e+00
          1.455836341704e-01 1.194774033288e-01 0.000000000000e+00
          1.468719849152e-01 1.205347254822e-01 0.000000000000e+00
          1.481603356601e-01 1.215920476355e-01 0.000000000000e+00
          1.494486864050e-01 1.226493697889e-01 0.000000000000e+00
          1.507370371498e-01 1.237066919422e-01 0.000000000000e+00
          1.520253878947e-01 1.247640140956e-01 0.000000000000e+00
          1.533137386396e-01 1.258213362489e-01 0.000000000000e+00
          1.546020893844e-01 1.268786584023e-01 0.000000000000e+00
          1.558904401293e-01 1.279359805556e-01 0.000000000000e+00
          1.571787908742e-01 1.289933027090e-01 0.000000000000e+00
          1.584671416191e-01 1.300506248623e-01 0.000000000000e+00
          1.597554923639e-01 1.311079470157e-01 0.000000000000e+00
          1.610438431088e-01 1.321652691690e-01 0.000000000000e+00
          1.623321938537e-01 1.332225913224e-01 0.000000000000e+00
          1.636205445985e-01 1.342799134758e-01 0.000000000000e+00
          1.649088953434e-01 1.353372356291e-01 0.000000000000e+00
          1.661972460883e-01 1.363945577825e-01 0.000000000000e+00
          1.674855968332e-01 1.374518799358e-01 0.000000000000e+00
          1.687739475780e-01 1.385092020892e-01 0.000000000000e+00
          1.700622983229e-01 1.395665242425e-01 0.000000000000e+00
          1.713506490678e-01 1.406238463959e-01 0.000000000000e+00
          1.726389998126e-01 1.416811685492e-01 0.000000000000e+00
          1.739273505575e-01 1.427384907026e-01 0.000000000000e+00
          1.237436852719e-01 1.237436881434e-01 0.000000000000e+00
          1.249221965602e-01 1.249221994590e-01 0.000000000000e+00
          1.261007078485e-01 1.261007107747e-01 0.000000000000e+00
          1.272792191368e-01 1.272792220903e-01 0.000000000000e+00
          1.284577304251e-01 1.284577334060e-01 0.000000000000e+00
          1.296362417134e-01 1.296362447216e-01 0.000000000000e+00
          1.308147530017e-01 1.308147560373e-01 0.000000000000e+00
          1.319932642900e-01 1.319932673529e-01 0.000000000000e+00
          1.331717755783e-01 1.331717786686e-01 0.000000000000e+00
          1.343502868666e-01 1.343502899842e-01 0.000000000000e+00
          1.355287981549e-01 1.355288012999e-01 0.000000000000e+00
          1.367073094432e-01 1.367073126156e-01 0.000000000000e+00
          1.378858207315e-01 1.378858239312e-01 0.000000000000e+00
          1.390643320199e-01 1.390643352469e-01 0.000000000000e+00
          1.402428433082e-01 1.402428465625e-01 0.000000000000e+00
          1.414213545965e-01 1.414213578782e-01 0.000000000000e+00
          1.425998658848e-01 1.425998691938e-01 0.000000000000e+00
          1.437783771731e-01 1.437783805095e-01 0.000000000000e+00
          1.449568884614e-01 1.449568918251e-01 0.000000000000e+00
          1.461353997497e-01 1.461354031408e-01 0.000000000000e+00
          1.473139110380e-01 1.473139144564e-01 0.000000000000e+00
          1.484924223263e-01 1.484924257721e-01 0.000000000000e+00
          1.496709336146e-01 1.496709370877e-01 0.000000000000e+00
          1.508494449029e-01 1.508494484034e-01 0.000000000000e+00
          1.520279561912e-01 1.520279597190e-01 0.000000000000e+00
          1.532064674795e-01 1.532064710347e-01 0.000000000000e+00
          1.543849787678e-01 1.543849823503e-01 0.000000000000e+00
          1.555634900561e-01 1.555634936660e-01 0.000000000000e+00
          1.567420013444e-01 1.567420049816e-01 0.000000000000e+00
          1.579205126327e-01 1.579205162973e-01 0.000000000000e+00
          1.590990239210e-01 1.590990276129e-01 0.000000000000e+00
          1.110188229629e-01 1.352768307876e-01 0.000000000000e+00
          1.120761450863e-01 1.365651815570e-01 0.000000000000e+00
          1.131334672098e-01 1.378535323264e-01 0.000000000000e+00
          1.141907893333e-01 1.391418830958e-01 0.000000000000e+00
          1.152481114567e-01 1.404302338652e-01 0.000000000000e+00
          1.163054335802e-01 1.417185846346e-01 0.000000000000e+00
          1.173627557036e-01 1.430069354040e-01 0.000000000000e+00
          1.184200778271e-01 1.442952861734e-01 0.000000000000e+00
          1.194773999505e-01 1.455836369428e-01 0.000000000000e+00
          1.205347220740e-01 1.468719877122e-01 0.000000000000e+00
          1.215920441974e-01 1.481603384817e-01 0.000000000000e+00
          1.226493663209e-01 1.494486892511e-01 0.000000000000e+00
          1.237066884444e-01 1.507370400205e-01 0.000000000000e+00
          1.247640105678e-01 1.520253907899e-01 0.000000000000e+00
          1.258213326913e-01 1.533137415593e-01 0.000000000000e+00
          1.268786548147e-01 1.546020923287e-01 0.000000000000e+00
          1.279359769382e-01 1.558904430981e-01 0.000000000000e+00
          1.289932990616e-01 1.571787938675e-01 0.000000000000e+00
          1.300506211851e-01 1.584671446369e-01 0.000000000000e+00
          1.311079433086e-01 1.597554954063e-01 0.000000000000e+00
          1.321652654320e-01 1.610438461757e-01 0.000000000000e+00
          1.332225875555e-01 1.623321969451e-01 0.000000000000e+00
          1.342799096789e-01 1.636205477145e-01 0.000000000000e+00
          1.353372318024e-01 1.649088984839e-01 0.000000000000e+00
          1.363945539258e-01 1.661972492533e-01 0.000000000000e+00
          1.374518760493e-01 1.674856000227e-01 0.000000000000e+00
          1.385091981727e-01 1.687739507921e-01 0.000000000000e+00
          1.395665202962e-01 1.700623015615e-01 0.000000000000e+00
          1.406238424197e-01 1.713506523310e-01 0.000000000000e+00
          1.416811645431e-01 1.726390031004e-01 0.000000000000e+00
          1.427384866666e-01 1.739273538698e-01 0.000000000000e+00
          9.722478866811e-02 1.455071835630e-01 0.000000000000e+00
          9.815073903638e-02 1.468929662636e-01 0.000000000000e+00
          9.907668940465e-02 1.482787489642e-01 0.000000000000e+00
          1.000026397729e-01 1.496645316648e-01 0.000000000000e+00
          1.009285901412e-01 1.510503143654e-01 0.000000000000e+00
          1.018545405095e-01 1.524360970660e-01 0.000000000000e+00
          1.027804908777e-01 1.538218797666e-01 0.000000000000e+00
          1.037064412460e-01 1.552076624672e-01 0.000000000000e+00
          1.046323916143e-01 1.565934451678e-01 0.000000000000e+00
          1.055583419825e-01 1.579792278684e-01 0.000000000000e+00
          1.064842923508e-01 1.593650105690e-01 0.000000000000e+00
          1.074102427191e-01 1.607507932696e-01 0.000000000000e+00
          1.083361930873e-01 1.621365759702e-01 0.000000000000e+00
          1.092621434556e-01 1.635223586708e-01 0.000000000000e+00
          1.101880938239e-01 1.649081413714e-01 0.000000000000e+00
          1.111140441921e-01 1.662939240720e-01 0.000000000000e+00
          1.120399945604e-01 1.676797067726e-01 0.000000000000e+00
          1.129659449287e-01 1.690654894732e-01 0.000000000000e+00
          1.138918952969e-01 1.704512721738e-01 0.000000000000e+00
          1.148178456652e-01 1.718370548744e-01 0.000000000000e+00
          1.157437960335e-01 1.732228375750e-01 0.000000000000e+00
          1.166697464017e-01 1.746086202756e-01 0.000000000000e+00
          1.175956967700e-01 1.759944029762e-01 0.000000000000e+00
          1.185216471383e-01 1.773801856768e-01 0.000000000000e+00
          1.194475975065e-01 1.787659683774e-01 0.000000000000e+00
          1.203735478748e-01 1.801517510780e-01 0.000000000000e+00
          1.212994982431e-01 1.815375337786e-01 0.000000000000e+00
          1.222254486113e-01 1.829233164792e-01 0.000000000000e+00
          1.231513989796e-01 1.843090991798e-01 0.000000000000e+00
          1.240773493479e-01 1.856948818804e-01 0.000000000000e+00
          1.250032997161e-01 1.870806645810e-01 0.000000000000e+00
          8.249442648235e-02 1.543362225770e-01 0.000000000000e+00
          8.328008768694e-02 1.558060913635e-01 0.000000000000e+00
          8.406574889153e-02 1.572759601499e-01 0.000000000000e+00
          8.485141009613e-02 1.587458289364e-01 0.000000000000e+00
          8.563707130072e-02 1.602156977228e-01 0.000000000000e+00
          8.642273250531e-02 1.616855665093e-01 0.000000000000e+00
          8.720839370991e-02 1.631554352957e-01 0.000000000000e+00
          8.799405491450e-02 1.646253040822e-01 0.000000000000e+00
          8.877971611910e-02 1.660951728686e-01 0.000000000000e+00
          8.956537732369e-02 1.675650416551e-01 0.000000000000e+00
          9.035103852828e-02 1.690349104415e-01 0.000000000000e+00
          9.113669973288e-02 1.705047792280e-01 0.000000000000e+00
          9.192236093747e-02 1.719746480144e-01 0.000000000000e+00
          9.270802214206e-02 1.734445168009e-01 0.000000000000e+00
          9.349368334666e-02 1.749143855873e-01 0.000000000000e+00
          9.427934455125e-02 1.763842543738e-01 0.000000000000e+00
          9.506500575585e-02 1.778541231602e-01 0.000000000000e+00
          9.585066696044e-02 1.793239919467e-01 0.000000000000e+00
          9.663632816503e-02 1.807938607331e-01 0.000000000000e+00
          9.742198936963e-02 1.822637295195e-01 0.000000000000e+00
          9.820765057422e-02 1.837335983060e-01 0.000000000000e+00
          9.899331177881e-02 1.852034670924e-01 0.000000000000e+00
          9.977897298341e-02 1.866733358789e-01 0.000000000000e+00
          1.005646341880e-01 1.881432046653e-01 0.000000000000e+00
          1.013502953926e-01 1.896130734518e-01 0.000000000000e+00
          1.021359565972e-01 1.910829422382e-01 0.000000000000e+00
          1.029216178018e-01 1.925528110247e-01 0.000000000000e+00
          1.037072790064e-01 1.940226798111e-01 0.000000000000e+00
          1.044929402110e-01 1.954925485976e-01 0.000000000000e+00
          1.052786014156e-01 1.969624173840e-01 0.000000000000e+00
          1.060642626202e-01 1.984322861705e-01 0.000000000000e+00
          6.696959785006e-02 1.616789193550e-01 0.000000000000e+00
          6.760740354387e-02 1.632187185870e-01 0.000000000000e+00
          6.824520923768e-02 1.647585178189e-01 0.000000000000e+00
          6.888301493149e-02 1.662983170509e-01 0.000000000000e+00
          6.952082062530e-02 1.678381162828e-01 0.000000000000e+00
          7.015862631911e-02 1.693779155148e-01 0.000000000000e+00
          7.079643201292e-02 1.709177147467e-01 0.000000000000e+00
          7.143423770673e-02 1.724575139787e-01 0.000000000000e+00
          7.207204340054e-02 1.739973132106e-01 0.000000000000e+00
          7.270984909435e-02 1.755371124426e-01 0.000000000000e+00
          7.334765478816e-02 1.770769116745e-01 0.000000000000e+00
          7.398546048197e-02 1.786167109065e-01 0.000000000000e+00
          7.462326617578e-02 1.801565101384e-01 0.000000000000e+00
          7.526107186959e-02 1.816963093704e-01 0.000000000000e+00
          7.589887756340e-02 1.832361086023e-01 0.000000000000e+00
          7.653668325721e-02 1.847759078343e-01 0.000000000000e+00
          7.717448895102e-02 1.863157070662e-01 0.000000000000e+00
          7.781229464483e-02 1.878555062982e-01 0.000000000000e+00
          7.845010033864e-02 1.893953055301e-01 0.000000000000e+00
          7.908790603245e-02 1.909351047621e-01 0.000000000000e+00
          7.972571172626e-02 1.924749039941e-01 0.000000000000e+00
          8.036351742007e-02 1.940147032260e-01 0.000000000000e+00
          8.100132311388e-02 1.955545024580e-01 0.000000000000e+00
          8.163912880769e-02 1.970943016899e-01 0.000000000000e+00
          8.227693450150e-02 1.986341009219e-01 0.000000000000e+00
          8.291474019531e-02 2.001739001538e-01 0.000000000000e+00
          8.355254588912e-02 2.017136993858e-01 0.000000000000e+00
          8.419035158293e-02 2.032534986177e-01 0.000000000000e+00
          8.482815727674e-02 2.047932978497e-01 0.000000000000e+00
          8.546596297055e-02 2.063330970816e-01 0.000000000000e+00
          8.610376866436e-02 2.078728963136e-01 0.000000000000e+00
          5.079981536213e-02 1.674645597109e-01 0.000000000000e+00
          5.128362312748e-02 1.690594602796e-01 0.000000000000e+00
          5.176743089284e-02 1.706543608483e-01 0.000000000000e+00
          5.225123865819e-02 1.722492614169e-01 0.000000000000e+00
          5.273504642354e-02 1.738441619856e-01 0.000000000000e+00
          5.321885418890e-02 1.754390625543e-01 0.000000000000e+00
          5.370266195425e-02 1.770339631230e-01 0.000000000000e+00
          5.418646971960e-02 1.786288636917e-01 0.000000000000e+00
          5.467027748496e-02 1.802237642603e-01 0.000000000000e+00
          5.515408525031e-02 1.818186648290e-01 0.000000000000e+00
          5.563789301567e-02 1.834135653977e-01 0.000000000000e+00
          5.612170078102e-02 1.850084659664e-01 0.000000000000e+00
          5.660550854637e-02 1.866033665350e-01 0.000000000000e+00
          5.708931631173e-02 1.881982671037e-01 0.000000000000e+00
          5.757312407708e-02 1.897931676724e-01 0.000000000000e+00
          5.805693184243e-02 1.913880682411e-01 0.000000000000e+00
          5.854073960779e-02 1.929829688097e-01 0.000000000000e+00
          5.902454737314e-02 1.945778693784e-01 0.000000000000e+00
          5.950835513849e-02 1.961727699471e-01 0.000000000000e+00
          5.999216290385e-02 1.977676705158e-01 0.000000000000e+00
          6.047597066920e-02 1.993625710844e-01 0.000000000000e+00
          6.095977843456e-02 2.009574716531e-01 0.000000000000e+00
          6.144358619991e-02 2.025523722218e-01 0.000000000000e+00
          6.192739396526e-02 2.041472727905e-01 0.000000000000e+00
          6.241120173062e-02 2.057421733591e-01 0.000000000000e+00
          6.289500949597e-02 2.073370739278e-01 0.000000000000e+00
          6.337881726132e-02 2.089319744965e-01 0.000000000000e+00
          6.386262502668e-02 2.105268750652e-01 0.000000000000e+00
          6.434643279203e-02 2.121217756338e-01 0.000000000000e+00
          6.483024055738e-02 2.137166762025e-01 0.000000000000e+00
          6.531404832274e-02 2.153115767712e-01 0.000000000000e+00
          3.414080286782e-02 1.716374247638e-01 0.000000000000e+00
          3.446595337132e-02 1.732720669044e-01 0.000000000000e+00
          3.479110387482e-02 1.749067090450e-01 0.000000000000e+00
          3.511625437833e-02 1.765413511856e-01 0.000000000000e+00
          3.544140488183e-02 1.781759933262e-01 0.000000000000e+00
          3.576655538533e-02 1.798106354668e-01 0.000000000000e+00
          3.609170588883e-02 1.814452776074e-01 0.000000000000e+00
          3.641685639234e-02 1.830799197480e-01 0.000000000000e+00
          3.674200689584e-02 1.847145618886e-01 0.000000000000e+00
          3.706715739934e-02 1.863492040292e-01 0.000000000000e+00
          3.739230790285e-02 1.879838461699e-01 0.000000000000e+00
          3.771745840635e-02 1.896184883105e-01 0.000000000000e+00
          3.804260890985e-02 1.912531304511e-01 0.000000000000e+00
          3.836775941336e-02 1.928877725917e-01 0.000000000000e+00
          3.869290991686e-02 1.945224147323e-01 0.000000000000e+00
          3.901806042036e-02 1.961570568729e-01 0.000000000000e+00
          3.934321092386e-02 1.977916990135e-01 0.000000000000e+00
          3.966836142737e-02 1.994263411541e-01 0.000000000000e+00
          3.999351193087e-02 2.010609832947e-01 0.000000000000e+00
          4.031866243437e-02 2.026956254353e-01 0.000000000000e+00
          4.064381293788e-02 2.043302675759e-01 0.000000000000e+00
          4.096896344138e-02 2.059649097165e-01 0.000000000000e+00
          4.129411394488e-02 2.075995518571e-01 0.000000000000e+00
          4.161926444839e-02 2.092341939977e-01 0.000000000000e+00
          4.194441495189e-02 2.108688361384e-01 0.000000000000e+00
          4.226956545539e-02 2.125034782790e-01 0.000000000000e+00
          4.259471595889e-02 2.141381204196e-01 0.000000000000e+00
          4.291986646240e-02 2.157727625602e-01 0.000000000000e+00
          4.324501696590e-02 2.174074047008e-01 0.000000000000e+00
          4.357016746940e-02 2.190420468414e-01 0.000000000000e+00
          4.389531797291e-02 2.206766889820e-01 0.000000000000e+00
          1.715299576892e-02 1.741573275408e-01 0.000000000000e+00
          1.731635763338e-02 1.758159687555e-01 0.000000000000e+00
          1.747971949785e-02 1.774746099701e-01 0.000000000000e+00
          1.764308136232e-02 1.791332511848e-01 0.000000000000e+00
          1.780644322678e-02 1.807918923995e-01 0.000000000000e+00
          1.796980509125e-02 1.824505336142e-01 0.000000000000e+00
          1.813316695571e-02 1.841091748288e-01 0.000000000000e+00
          1.829652882018e-02 1.857678160435e-01 0.000000000000e+00
          1.845989068465e-02 1.874264572582e-01 0.000000000000e+00
          1.862325254911e-02 1.890850984729e-01 0.000000000000e+00
          1.878661441358e-02 1.907437396875e-01 0.000000000000e+00
          1.894997627804e-02 1.924023809022e-01 0.000000000000e+00
          1.911333814251e-02 1.940610221169e-01 0.000000000000e+00
          1.927670000697e-02 1.957196633316e-01 0.000000000000e+00
          1.944006187144e-02 1.973783045462e-01 0.000000000000e+00
          1.960342373591e-02 1.990369457609e-01 0.000000000000e+00
          1.976678560037e-02 2.006955869756e-01 0.000000000000e+00
          1.993014746484e-02 2.023542281903e-01 0.000000000000e+00
          2.009350932930e-02 2.040128694049e-01 0.000000000000e+00
          2.025687119377e-02 2.056715106196e-01 0.000000000000e+00
          2.042023305824e-02 2.073301518343e-01 0.000000000000e+00
          2.058359492270e-02 2.089887930490e-01 0.000000000000e+00
          2.074695678717e-02 2.106474342636e-01 0.000000000000e+00
          2.091031865163e-02 2.123060754783e-01 0.000000000000e+00
          2.107368051610e-02 2.139647166930e-01 0.000000000000e+00
          2.123704238057e-02 2.156233579076e-01 0.000000000000e+00
          2.140040424503e-02 2.172819991223e-01 0.000000000000e+00
          2.156376610950e-02 2.189406403370e-01 0.000000000000e+00
          2.172712797396e-02 2.205992815517e-01 0.000000000000e+00
          2.189048983843e-02 2.222579227663e-01 0.000000000000e+00
          2.205385170289e-02 2.239165639810e-01 0.000000000000e+00
          -4.060893083300e-09 1.750000000000e-01 0.000000000000e+00
          -4.099568255522e-09 1.766666666667e-01 0.000000000000e+00
          -4.138243427744e-09 1.783333333333e-01 0.000000000000e+00
          -4.176918599966e-09 1.800000000000e-01 0.000000000000e+00
          -4.215593772188e-09 1.816666666667e-01 0.000000000000e+00
          -4.254268944410e-09 1.833333333333e-01 0.000000000000e+00
          -4.292944116632e-09 1.850000000000e-01 0.000000000000e+00
          -4.331619288854e-09 1.866666666667e-01 0.000000000000e+00
          -4.370294461076e-09 1.883333333333e-01 0.000000000000e+00
          -4.408969633297e-09 1.900000000000e-01 0.000000000000e+00
          -4.447644805519e-09 1.916666666667e-01 0.000000000000e+00
          -4.486319977741e-09 1.933333333333e-01 0.000000000000e+00
          -4.524995149963e-09 1.950000000000e-01 0.000000000000e+00
          -4.563670322185e-09 1.966666666667e-01 0.000000000000e+00
          -4.602345494407e-09 1.983333333333e-01 0.000000000000e+00
          -4.641020666629e-09 2.000000000000e-01 0.000000000000e+00
          -4.679695838851e-09 2.016666666667e-01 0.000000000000e+00
          -4.718371011073e-09 2.033333333333e-01 0.000000000000e+00
          -4.757046183295e-09 2.050000000000e-01 0.000000000000e+00
          -4.795721355517e-09 2.066666666667e-01 0.000000000000e+00
          -4.834396527738e-09 2.083333333333e-01 0.000000000000e+00
          -4.873071699960e-09 2.100000000000e-01 0.000000000000e+00
          -4.911746872182e-09 2.116666666667e-01 0.000000000000e+00
          -4.950422044404e-09 2.133333333333e-01 0.000000000000e+00
          -4.989097216626e-09 2.150000000000e-01 0.000000000000e+00
          -5.027772388848e-09 2.166666666667e-01 0.000000000000e+00
          -5.066447561070e-09 2.183333333333e-01 0.000000000000e+00
          -5.105122733292e-09 2.200000000000e-01 0.000000000000e+00
          -5.143797905514e-09 2.216666666667e-01 0.000000000000e+00
          -5.182473077736e-09 2.233333333333e-01 0.000000000000e+00
          -5.221148249957e-09 2.250000000000e-01 0.000000000000e+00
        </DataArray>
      </Points>
      <Cells>
        <DataArray type="Int64" Name="connectivity" format="ascii">
          31 0 1 32 
          32 1 2 33 
          33 2 3 34 
          34 3 4 35 
          35 4 5 36 
          36 5 6 37 
          37 6 7 38 
          38 7 8 39 
          39 8 9 40 
          40 9 10 41 
          41 10 11 42 
          42 11 12 43 
          43 12 13 44 
          44 13 14 45 
          45 14 15 46 
          46 15 16 47 
          47 16 17 48 
          48 17 18 49 
          49 18 19 50 
          50 19 20 51 
          51 20 21 52 
          52 21 22 53 
          53 22 23 54 
          54 23 24 55 
          55 24 25 56 
          56 25 26 57 
          57 26 27 58 
          58 27 28 59 
          59 28 29 60 
          60 29 30 61 
          62 31 32 63 
          63 32 33 64 
          64 33 34 65 
          65 34 35 66 
          66 35 36 67 
          67 36 37 68 
          68 37 38 69 
          69 38 39 70 
          70 39 40 71 
          71 40 41 72 
          72 41 42 73 
          73 42 43 74 
          74 43 44 75 
          75 44 45 76 
          76 45 46 77 
          77 46 47 78 
          78 47 48 79 
          79 48 49 80 
          80 49 50 81 
          81 50 51 82 
          82 51 52 83 
          83 52 53 84 
          84 53 54 85 
          85 54 55 86 
          86 55 56 87 
          87 56 57 88 
          88 57 58 89 
          89 58 59 90 
          90 59 60 91 
          91 60 61 92 
          93 62 63 94 
          94 63 64 95 
          95 64 65 96 
          96 65 66 97 
          97 66 67 98 
          98 67 68 99 
          99 68 69 100 
          100 69 70 101 
          101 70 71 102 
          102 71 72 103 
          103 72 73 104 
          104 73 74 105 
          105 74 75 106 
          106 75 76 107 
          107 76 77 108 
          108 77 78 109 
          109 78 79 110 
          110 79 80 111 
          111 80 81 112 
          112 81 82 113 
          113 82 83 114 
          114 83 84 115 
          115 84 85 116 
          116 85 86 117 
          117 86 87 118 
          118 87 88 119 
          119 88 89 120 
          120 89 90 121 
          121 90 91 122 
          122 91 92 123 
          124 93 94 125 
          125 94 95 126 
          126 95 96 127 
          127 96 97 128 
          128 97 98 129 
          129 98 99 130 
          130 99 100 131 
          131 100 101 132 
          132 101 102 133 
          133 102 103 134 
          134 103 104 135 
          135 104 105 136 
          136 105 106 137 
          137 106 107 138 
          138 107 108 139 
          139 108 109 140 
          140 109 110 141 
          141 110 111 142 
          142 111 112 143 
          143 112 113 144 
          144 113 114 145 
          145 114 115 146 
          146 115 116 147 
          147 116 117 148 
          148 117 118 149 
          149 118 119 150 
          150 119 120 151 
          151 120 121 152 
          152 121 122 153 
          153 122 123 154 
          155 124 125 156 
          156 125 126 157 
          157 126 127 158 
          158 127 128 159 
          159 128 129 160 
          160 129 130 161 
          161 130 131 162 
          162 131 132 163 
          163 132 133 164 
          164 133 134 165 
          165 134 135 166 
          166 135 136 167 
          167 136 137 168 
          168 137 138 169 
          169 138 139 170 
          170 139 140 171 
          171 140 141 172 
          172 141 142 173 
          173 142 143 174 
          174 143 144 175 
          175 144 145 176 
          176 145 146 177 
          177 146 147 178 
          178 147 148 179 
          179 148 149 180 
          180 149 150 181 
          181 150 151 182 
          182 151 152 183 
          183 152 153 184 
          184 153 154 185 
          186 155 156 187 
          187 156 157 188 
          188 157 158 189 
          189 158 159 190 
          190 159 160 191 
          191 160 161 192 
          192 161 162 193 
          193 162 163 194 
          194 163 164 195 
          195 164 165 196 
          196 165 166 197 
          197 166 167 198 
          198 167 168 199 
          199 168 169 200 
          200 169 170 201 
          201 170 171 202 
          202 171 172 203 
          203 172 173 204 
          204 173 174 205 
          205 174 175 206 
          206 175 176 207 
          207 176 177 208 
          208 177 178 209 
          209 178 179 210 
          210 179 180 211 
          211 180 181 212 
          212 181 182 213 
          213 182 183 214 
          214 183 184 215 
          215 184 185 216 
          217 186 187 218 
          218 187 188 219 
          219 188 189 220 
          220 189 190 221 
          221 190 191 222 
          222 191 192 223 
          223 192 193 224 
          224 193 194 225 
          225 194 195 226 
          226 195 196 227 
          227 196 197 228 
          228 197 198 229 
          229 198 199 230 
          230 199 200 231 
          231 200 201 232 
          232 201 202 233 
          233 202 203 234 
          234 203 204 235 
          235 204 205 236 
          236 205 206 237 
          237 206 207 238 
          238 207 208 239 
          239 208 209 240 
          240 209 210 241 
          241 210 211 242 
          242 211 212 243 
          243 212 213 244 
          244 213 214 245 
          245 214 215 246 
          246 215 216 247 
          248 217 218 249 
          249 218 219 250 
          250 219 220 251 
          251 220 221 252 
          252 221 222 253 
          253 222 223 254 
          254 223 224 255 
          255 224 225 256 
          256 225 226 257 
          257 226 227 258 
          258 227 228 259 
          259 228 229 260 
          260 229 230 261 
          261 230 231 262 
          262 231 232 263 
          263 232 233 264 
          264 233 234 265 
          265 234 235 266 
          266 235 236 267 
          267 236 237 268 
          268 237 238 269 
          269 238 239 270 
          270 239 240 271 
          271 240 241 272 
          272 241 242 273 
          273 242 243 274 
          274 243 244 275 
          275 244 245 276 
          276 245 246 277 
          277 246 247 278 
          279 248 249 280 
          280 249 250 281 
          281 250 251 282 
          282 251 252 283 
          283 252 253 284 
          284 253 254 285 
          285 254 255 286 
          286 255 256 287 
          287 256 257 288 
          288 257 258 289 
          289 258 259 290 
          290 259 260 291 
          291 260 261 292 
          292 261 262 293 
          293 262 263 294 
          294 263 264 295 
          295 264 265 296 
          296 265 266 297 
          297 266 267 298 
          298 267 268 299 
          299 268 269 300 
          300 269 270 301 
          301 270 271 302 
          302 271 272 303 
          303 272 273 304 
          304 273 274 305 
          305 274 275 306 
          306 275 276 307 
          307 276 277 308 
          308 277 278 309 
          310 279 280 311 
          311 280 281 312 
          312 281 282 313 
          313 282 283 314 
          314 283 284 315 
          315 284 285 316 
          316 285 286 317 
          317 286 287 318 
          318 287 288 319 
          319 288 289 320 
          320 289 290 321 
          321 290 291 322 
          322 291 292 323 
          323 292 293 324 
          324 293 294 325 
          325 294 295 326 
          326 295 296 327 
          327 296 297 328 
          328 297 298 329 
          329 298 299 330 
          330 299 300 331 
          331 300 301 332 
          332 301 302 333 
          333 302 303 334 
          334 303 304 335 
          335 304 305 336 
          336 305 306 337 
          337 306 307 338 
          338 307 308 339 
          339 308 309 340 
          341 310 311 342 
          342 311 312 343 
          343 312 313 344 
          344 313 314 345 
          345 314 315 346 
          346 315 316 347 
          347 316 317 348 
          348 317 318 349 
          349 318 319 350 
          350 319 320 351 
          351 320 321 352 
          352 321 322 353 
          353 322 323 354 
          354 323 324 355 
          355 324 325 356 
          356 325 326 357 
          357 326 327 358 
          358 327 328 359 
          359 328 329 360 
          360 329 330 361 
          361 330 331 362 
          362 331 332 363 
          363 332 333 364 
          364 333 334 365 
          365 334 335 366 
          366 335 336 367 
          367 336 337 368 
          368 337 338 369 
          369 338 339 370 
          370 339 340 371 
          372 341 342 373 
          373 342 343 374 
          374 343 344 375 
          375 344 345 376 
          376 345 346 377 
          377 346 347 378 
          378 347 348 379 
          379 348 349 380 
          380 349 350 381 
          381 350 351 382 
          382 351 352 383 
          383 352 353 384 
          384 353 354 385 
          385 354 355 386 
          386 355 356 387 
          387 356 357 388 
          388 357 358 389 
          389 358 359 390 
          390 359 360 391 
          391 360 361 392 
          392 361 362 393 
          393 362 363 394 
          394 363 364 395 
          395 364 365 396 
          396 365 366 397 
          397 366 367 398 
          398 367 368 399 
          399 368 369 400 
          400 369 370 401 
          401 370 371 402 
          403 372 373 404 
          404 373 374 405 
          405 374 375 406 
          406 375 376 407 
          407 376 377 408 
          408 377 378 409 
          409 378 379 410 
          410 379 380 411 
          411 380 381 412 
          412 381 382 413 
          413 382 383 414 
          414 383 384 415 
          415 384 385 416 
          416 385 386 417 
          417 386 387 418 
          418 387 388 419 
          419 388 389 420 
          420 389 390 421 
          421 390 391 422 
          422 391 392 423 
          423 392 393 424 
          424 393 394 425 
          425 394 395 426 
          426 395 396 427 
          427 396 397 428 
          428 397 398 429 
          429 398 399 430 
          430 399 400 431 
          431 400 401 432 
          432 401 402 433 
          434 403 404 435 
          435 404 405 436 
          436 405 406 437 
          437 406 407 438 
          438 407 408 439 
          439 408 409 440 
          440 409 410 441 
          441 410 411 442 
          442 411 412 443 
          443 412 413 444 
          444 413 414 445 
          445 414 415 446 
          446 415 416 447 
          447 416 417 448 
          448 417 418 449 
          449 418 419 450 
          450 419 420 451 
          451 420 421 452 
          452 421 422 453 
          453 422 423 454 
          454 423 424 455 
          455 424 425 456 
          456 425 426 457 
          457 426 427 458 
          458 427 428 459 
          459 428 429 460 
          460 429 430 461 
          461 430 431 462 
          462 431 432 463 
          463 432 433 464 
          465 434 435 466 
          466 435 436 467 
          467 436 437 468 
          468 437 438 469 
          469 438 439 470 
          470 439 440 471 
          471 440 441 472 
          472 441 442 473 
          473 442 443 474 
          474 443 444 475 
          475 444 445 476 
          476 445 446 477 
          477 446 447 478 
          478 447 448 479 
          479 448 449 480 
          480 449 450 481 
          481 450 451 482 
          482 451 452 483 
          483 452 453 484 
          484 453 454 485 
          485 454 455 486 
          486 455 456 487 
          487 456 457 488 
          488 457 458 489 
          489 458 459 490 
          490 459 460 491 
          491 460 461 492 
          492 461 462 493 
          493 462 463 494 
          494 463 464 495 
          496 465 466 497 
          497 466 467 498 
          498 467 468 499 
          499 468 469 500 
          500 469 470 501 
          501 470 471 502 
          502 471 472 503 
          503 472 473 504 
          504 473 474 505 
          505 474 475 506 
          506 475 476 507 
          507 476 477 508 
          508 477 478 509 
          509 478 479 510 
          510 479 480 511 
          511 480 481 512 
          512 481 482 513 
          513 482 483 514 
          514 483 484 515 
          515 484 485 516 
          516 485 486 517 
          517 486 487 518 
          518 487 488 519 
          519 488 489 520 
          520 489 490 521 
          521 490 491 522 
          522 491 492 523 
          523 492 493 524 
          524 493 494 525 
          525 494 495 526 
        </DataArray>
        <DataArray type="Int64" Name="offsets" format="ascii">
          4 8 12 16 20 24 28 32 36 40 44 48 52 56 60 64 68 72 76 80 84 88 92 96 100 104 108 112 116 120 124 128 132 136 140 144 148 152 156 160 164 168 172 176 180 184 188 192 196 200 204 208 212 216 220 224 228 232 236 240 244 248 252 256 260 264 268 272 276 280 284 288 292 296 300 304 308 312 316 320 324 328 332 336 340 344 348 352 356 360 364 368 372 376 380 384 388 392 396 400 404 408 412 416 420 424 428 432 436 440 444 448 452 456 460 464 468 472 476 480 484 488 492 496 500 504 508 512 516 520 524 528 532 536 540 544 548 552 556 560 564 568 572 576 580 584 588 592 596 600 604 608 612 616 620 624 628 632 636 640 644 648 652 656 660 664 668 672 676 680 684 688 692 696 700 704 708 712 716 720 724 728 732 736 740 744 748 752 756 760 764 768 772 776 780 784 788 792 796 800 804 808 812 816 820 824 828 832 836 840 844 848 852 856 860 864 868 872 876 880 884 888 892 896 900 904 908 912 916 920 924 928 932 936 940 944 948 952 956 960 964 968 972 976 980 984 988 992 996 1000 1004 1008 1012 1016 1020 1024 1028 1032 1036 1040 1044 1048 1052 1056 1060 1064 1068 1072 1076 1080 1084 1088 1092 1096 1100 1104 1108 1112 1116 1120 1124 1128 1132 1136 1140 1144 1148 1152 1156 1160 1164 1168 1172 1176 1180 1184 1188 1192 1196 1200 1204 1208 1212 1216 1220 1224 1228 1232 1236 1240 1244 1248 1252 1256 1260 1264 1268 1272 1276 1280 1284 1288 1292 1296 1300 1304 1308 1312 1316 1320 1324 1328 1332 1336 1340 1344 1348 1352 1356 1360 1364 1368 1372 1376 1380 1384 1388 1392 1396 1400 1404 1408 1412 1416 1420 1424 1428 1432 1436 1440 1444 1448 1452 1456 1460 1464 1468 1472 1476 1480 1484 1488 1492 1496 1500 1504 1508 1512 1516 1520 1524 1528 1532 1536 1540 1544 1548 1552 1556 1560 1564 1568 1572 1576 1580 1584 1588 1592 1596 1600 1604 1608 1612 1616 1620 1624 1628 1632 1636 1640 1644 1648 1652 1656 1660 1664 1668 1672 1676 1680 1684 1688 1692 1696 1700 1704 1708 1712 1716 1720 1724 1728 1732 1736 1740 1744 1748 1752 1756 1760 1764 1768 1772 1776 1780 1784 1788 1792 1796 1800 1804 1808 1812 1816 1820 1824 1828 1832 1836 1840 1844 1848 1852 1856 1860 1864 1868 1872 1876 1880 1884 1888 1892 1896 1900 1904 1908 1912 1916 1920 
        </DataArray>
        <DataArray type="UInt8" Name="types" format="ascii">
          9 9 9 9 9 9 9 9 9 9 9 9 9 9 9 9 9 9 9 9 9 9 9 9 9 9 9 9 9 9 9 9 9 9 9 9 9 9 9 9 9 9 9 9 9 9 9 9 9 9 9 9 9 9 9 9 9 9 9 9 9 9 9 9 9 9 9 9 9 9 9 9 9 9 9 9 9 9 9 9 9 9 9 9 9 9 9 9 9 9 9 9 9 9 9 9 9 9 9 9 9 9 9 9 9 9 9 9 9 9 9 9 9 9 9 9 9 9 9 9 9 9 9 9 9 9 9 9 9 9 9 9 9 9 9 9 9 9 9 9 9 9 9 9 9 9 9 9 9 9 9 9 9 9 9 9 9 9 9 9 9 9 9 9 9 9 9 9 9 9 9 9 9 9 9 9 9 9 9 9 9 9 9 9 9 9 9 9 9 9 9 9 9 9 9 9 9 9 9 9 9 9 9 9 9 9 9 9 9 9 9 9 9 9 9 9 9 9 9 9 9 9 9 9 9 9 9 9 9 9 9 9 9 9 9 9 9 9 9 9 9 9 9 9 9 9 9 9 9 9 9 9 9 9 9 9 9 9 9 9 9 9 9 9 9 9 9 9 9 9 9 9 9 9 9 9 9 9 9 9 9 9 9 9 9 9 9 9 9 9 9 9 9 9 9 9 9 9 9 9 9 9 9 9 9 9 9 9 9 9 9 9 9 9 9 9 9 9 9 9 9 9 9 9 9 9 9 9 9 9 9 9 9 9 9 9 9 9 9 9 9 9 9 9 9 9 9 9 9 9 9 9 9 9 9 9 9 9 9 9 9 9 9 9 9 9 9 9 9 9 9 9 9 9 9 9 9 9 9 9 9 9 9 9 9 9 9 9 9 9 9 9 9 9 9 9 9 9 9 9 9 9 9 9 9 9 9 9 9 9 9 9 9 9 9 9 9 9 9 9 9 9 9 9 9 9 9 9 9 9 9 9 9 9 9 9 9 9 9 9 9 9 9 9 9 9 9 9 9 9 9 9 9 9 9 9 9 9 9 9 9 9 9 9 9 9 9 9 9 9 9 9 9 9 9 9 9 9 9 9 
        </DataArray>
      </Cells>
      <PointData Scalars="DISPLACEMENT_X1">
        <DataArray type="Float64" Name="STRESS_1" format="ascii">
          -1.039995682987e+03 -6.415513267087e+03 -1.156810615718e+04 -1.651893384454e+04 -2.128134824657e+04 -2.586647877325e+04 -3.028398928338e+04 -3.454247496785e+04 -3.864971037553e+04 -4.261281616541e+04 -4.643837446624e+04 -5.013251284543e+04 -5.370096674911e+04 -5.714912390753e+04 -6.048205910626e+04 -6.370456342907e+04 -6.682116433640e+04 -6.983614172635e+04 -7.275354374190e+04 -7.557719526573e+04 -7.831070403632e+04 -8.095746699798e+04 -8.352066943639e+04 -8.600328167309e+04 -8.840805324919e+04 -9.073750094242e+04 -9.299389463994e+04 -9.517924907307e+04 -9.729534792638e+04 -9.934389902394e+04 -1.013278521066e+05 -1.040335953764e+03 -6.415659147610e+03 -1.156818135780e+04 -1.651897590327e+04 -2.128137284228e+04 -2.586649325294e+04 -3.028399746609e+04 -3.454247927036e+04 -3.864971229343e+04 -4.261281637054e+04 -4.643837342471e+04 -5.013251136217e+04 -5.370096487157e+04 -5.714912144144e+04 -6.048205650154e+04 -6.370456081733e+04 -6.682116114187e+04 -6.983613847435e+04 -7.275354031921e+04 -7.557719113373e+04 -7.831069932619e+04 -8.095746161717e+04 -8.352066301397e+04 -8.600327424739e+04 -8.840804481748e+04 -9.073749168156e+04 -9.299388508449e+04 -9.517924042774e+04 -9.729534288970e+04 -9.934389996681e+04 -1.013278561969e+05 -1.040735334459e+03 -6.415807375234e+03 -1.156825139143e+04 -1.651901277025e+04 -2.128139174690e+04 -2.586650085514e+04 -3.028399772829e+04 -3.454247436125e+04 -3.864970429837e+04 -4.261280631210e+04 -4.643836190668e+04 -5.013249914766e+04 -5.370095202322e+04 -5.714910863777e+04 -6.048204316265e+04 -6.370454761839e+04 -6.682114757973e+04 -6.983612510748e+04 -7.275352576259e+04 -7.557717644451e+04 -7.831068326222e+04 -8.095744439448e+04 -8.352064300057e+04 -8.600325215677e+04 -8.840801833695e+04 -9.073745979960e+04 -9.299384551162e+04 -9.517919126051e+04 -9.729527740986e+04 -9.934380791311e+04 -1.013277146413e+05 -1.041437218648e+03 -6.416067893997e+03 -1.156837423676e+04 -1.651907881017e+04 -2.128142508874e+04 -2.586651434123e+04 -3.028399845899e+04 -3.454246687098e+04 -3.864969043190e+04 -4.261278894440e+04 -4.643834273445e+04 -5.013247797675e+04 -5.370093013908e+04 -5.714908612841e+04 -6.048202120593e+04 -6.370452436273e+04 -6.682112485928e+04 -6.983610106789e+04 -7.275350192325e+04 -7.557715017343e+04 -7.831065609267e+04 -8.095741364509e+04 -8.352060952221e+04 -8.600321224282e+04 -8.840797219093e+04 -9.073740383952e+04 -9.299377719698e+04 -9.517910377907e+04 -9.729516350033e+04 -9.934364652982e+04 -1.013274656532e+05 -1.042502914363e+03 -6.416463621361e+03 -1.156856172898e+04 -1.651917770157e+04 -2.128147732453e+04 -2.586653624199e+04 -3.028400042465e+04 -3.454245554337e+04 -3.864967132558e+04 -4.261276380529e+04 -4.643831409777e+04 -5.013244764574e+04 -5.370089831184e+04 -5.714905359232e+04 -6.048198789877e+04 -6.370449111271e+04 -6.682109053522e+04 -6.983606659746e+04 -7.275346540832e+04 -7.557711211809e+04 -7.831061480397e+04 -8.095736848809e+04 -8.352055808634e+04 -8.600315351533e+04 -8.840790253732e+04 -9.073731951281e+04 -9.299367309396e+04 -9.517897206683e+04 -9.729499011876e+04 -9.934340133683e+04 -1.013270879076e+05 -1.044034393387e+03 -6.417031884644e+03 -1.156883030895e+04 -1.651932167677e+04 -2.128155227393e+04 -2.586656905701e+04 -3.028400514648e+04 -3.454244198187e+04 -3.864964509203e+04 -4.261273014615e+04 -4.643827491086e+04 -5.013240533972e+04 -5.370085443349e+04 -5.714900857004e+04 -6.048194180247e+04 -6.370444477005e+04 -6.682104320268e+04 -6.983601765455e+04 -7.275341454336e+04 -7.557705879417e+04 -7.831055645167e+04 -8.095730455739e+04 -8.352048540670e+04 -8.600306982358e+04 -8.840780260675e+04 -9.073719951926e+04 -9.299352385277e+04 -9.517878395298e+04 -9.729474108720e+04 -9.934304985585e+04 -1.013265450410e+05 -1.046196824849e+03 -6.417832884010e+03 -1.156920981916e+04 -1.651952503676e+04 -2.128165979195e+04 -2.586661657441e+04 -3.028401392697e+04 -3.454242432266e+04 -3.864961033812e+04 -4.261268462701e+04 -4.643822228949e+04 -5.013234779738e+04 -5.370079458398e+04 -5.714894697634e+04 -6.048187884513e+04 -6.370438065609e+04 -6.682097816080e+04 -6.983594990312e+04 -7.275334438605e+04 -7.557698365083e+04 -7.831047571942e+04 -8.095721452743e+04 -8.352038438432e+04 -8.600295159775e+04 -8.840766356516e+04 -9.073702989530e+04 -9.299331514710e+04 -9.517851788453e+04 -9.729439156955e+04 -9.934255349054e+04 -1.013257790461e+05 -1.049261452648e+03 -6.418965635222e+03 -1.156974544376e+04 -1.651981241387e+04 -2.128181276725e+04 -2.586668553830e+04 -3.028402766558e+04 -3.454240128450e+04 -3.864956360872e+04 -4.261262166489e+04 -4.643814926287e+04 -5.013226862466e+04 -5.370071147740e+04 -5.714886093731e+04 -6.048179142472e+04 -6.370429110936e+04 -6.682088613038e+04 -6.983585567912e+04 -7.275324535263e+04 -7.557687828428e+04 -7.831036162374e+04 -8.095708838545e+04 -8.352024016031e+04 -8.600278533590e+04 -8.840746615324e+04 -9.073679117551e+04 -9.299301930599e+04 -9.517814372481e+04 -9.729389684517e+04 -9.934185165013e+04 -1.013246939621e+05 -1.053690600477e+03 -6.420594823370e+03 -1.157051315498e+04 -1.652022473693e+04 -2.128203156881e+04 -2.586678380801e+04 -3.028404668401e+04 -3.454236895461e+04 -3.864949579913e+04 -4.261253118931e+04 -4.643804428735e+04 -5.013215489255e+04 -5.370059057406e+04 -5.714873667851e+04 -6.048166415508e+04 -6.370416125529e+04 -6.682075246464e+04 -6.983571781379e+04 -7.275310094700e+04 -7.557672502141e+04 -7.831019501404e+04 -8.095690438754e+04 -8.352003260303e+04 -8.600254458992e+04 -8.840718086147e+04 -9.073644718103e+04 -9.299259414875e+04 -9.517760391894e+04 -9.729318515299e+04 -9.934083975180e+04 -1.013231269663e+05 -1.060317271198e+03 -6.423014222564e+03 -1.157164563555e+04 -1.652082835977e+04 -2.128235055228e+04 -2.586692489264e+04 -3.028407061600e+04 -3.454231514544e+04 -3.864939157203e+04 -4.261239160976e+04 -4.643788298336e+04 -5.013197907984e+04 -5.370040613146e+04 -5.714854553743e+04 -6.048146886851e+04 -6.370396130874e+04 -6.682054811633e+04 -6.983550584549e+04 -7.275288028449e+04 -7.557649097358e+04 -7.830994247966e+04 -8.095662540869e+04 -8.351971905710e+04 -8.600218247148e+04 -8.840675416955e+04 -9.073593298939e+04 -9.299196114505e+04 -9.517680221384e+04 -9.729212724054e+04 -9.933932974589e+04 -1.013207859736e+05 -1.070766954266e+03 -6.426779119250e+03 -1.157338406858e+04 -1.652174927715e+04 -2.128282922663e+04 -2.586712711500e+04 -3.028409077904e+04 -3.454221451499e+04 -3.864921037452e+04 -4.261215837219e+04 -4.643761451572e+04 -5.013168850314e+04 -5.370010068247e+04 -5.714823062026e+04 -6.048114614722e+04 -6.370363273352e+04 -6.682021162805e+04 -6.983515990484e+04 -7.275251987134e+04 -7.557611102230e+04 -7.830953422463e+04 -8.095617911013e+04 -8.351921873466e+04 -8.600160979382e+04 -8.840608233703e+04 -9.073512721603e+04 -9.299097199434e+04 -9.517555442323e+04 -9.729047767488e+04 -9.933696204778e+04 -1.013171022504e+05 -1.088570138536e+03 -6.433063316656e+03 -1.157619878110e+04 -1.652321370092e+04 -2.128357837290e+04 -2.586742299977e+04 -3.028408378343e+04 -3.454200367105e+04 -3.864886500172e+04 -4.261172494706e+04 -4.643712404038e+04 -5.013116123988e+04 -5.369955058904e+04 -5.714766472268e+04 -6.048056930301e+04 -6.370304545101e+04 -6.681961360028e+04 -6.983454735185e+04 -7.275188667132e+04 -7.557544716313e+04 -7.830882758457e+04 -8.095540983659e+04 -8.351836226604e+04 -8.600063451797e+04 -8.840494724596e+04 -9.073377609943e+04 -9.298932779881e+04 -9.517348573161e+04 -9.728772756611e+04 -9.933296602763e+04 -1.013108495078e+05 -1.122540324598e+03 -6.444844784466e+03 -1.158112092249e+04 -1.652559450774e+04 -2.128474031995e+04 -2.586784356299e+04 -3.028399311952e+04 -3.454155003447e+04 -3.864815921793e+04 -4.261085222652e+04 -4.643614463045e+04 -5.013011653329e+04 -5.369846820192e+04 -5.714656134772e+04 -6.047945259490e+04 -6.370191768981e+04 -6.681847095299e+04 -6.983338187355e+04 -7.275068391762e+04 -7.557418742121e+04 -7.830748489681e+04 -8.095395194910e+04 -8.351674896240e+04 -8.599881799885e+04 -8.840286620042e+04 -9.073134171208e+04 -9.298638627103e+04 -9.516974858004e+04 -9.728263756357e+04 -9.932543136197e+04 -1.012989891219e+05 -1.198136653681e+03 -6.472470806220e+03 -1.159196450400e+04 -1.652958396432e+04 -2.128581963961e+04 -2.586763633653e+04 -3.028314149610e+04 -3.454030044348e+04 -3.864661609235e+04 -4.260907718104e+04 -4.643419148620e+04 -5.012803399982e+04 -5.369629552124e+04 -5.714432642578e+04 -6.047717121692e+04 -6.369959192426e+04 -6.681609121439e+04 -6.983093066448e+04 -7.274813908253e+04 -7.557152372321e+04 -7.830467717587e+04 -8.095097309375e+04 -8.351356108026e+04 -8.599534834130e+04 -8.839896326606e+04 -9.072670425078e+04 -9.298046809789e+04 -9.516165960622e+04 -9.727106957086e+04 -9.930845712254e+04 -1.012727516455e+05 -1.386511057507e+03 -6.564717631516e+03 -1.164170156818e+04 -1.655245889028e+04 -2.129219466074e+04 -2.586495171774e+04 -3.027626545654e+04 -3.453206393980e+04 -3.863844616585e+04 -4.260153880085e+04 -4.642737513663e+04 -5.012180975963e+04 -5.369046749340e+04 -5.713871420314e+04 -6.047164497912e+04 -6.369408728692e+04 -6.681060216316e+04 -6.982548481827e+04 -7.274277003985e+04 -7.556622750462e+04 -7.829934848216e+04 -8.094533373565e+04 -8.350707114454e+04 -8.598711203596e+04 -8.838766614466e+04 -9.071063111870e+04 -9.295769760963e+04 -9.513054722651e+04 -9.723093485267e+04 -9.925938861685e+04 -1.012069513668e+05 -1.371365929689e+03 -6.847728629363e+03 -1.201155810147e+04 -1.691326359449e+04 -2.160306445195e+04 -2.611336595757e+04 -3.046340667086e+04 -3.466494797108e+04 -3.872586926660e+04 -4.265210803081e+04 -4.644864112387e+04 -5.011996503125e+04 -5.367031694993e+04 -5.710376957705e+04 -6.042426430613e+04 -6.363561311215e+04 -6.674149155437e+04 -6.974543292530e+04 -7.265082089639e+04 -7.546089373156e+04 -7.817876644808e+04 -8.080747604747e+04 -8.335005980073e+04 -8.580970001354e+04 -8.818996737189e+04 -9.049519851349e+04 -9.273104894178e+04 -9.490511875892e+04 -9.702688762505e+04 -9.910341630311e+04 -1.011107222903e+05 -5.769102873301e+03 -4.323328783575e+03 -8.653033552801e+03 -1.396734193877e+04 -1.932505577584e+04 -2.447189815706e+04 -2.935583031424e+04 -3.398403960740e+04 -3.837899406579e+04 -4.256479357257e+04 -4.656323970117e+04 -5.039306750309e+04 -5.407017857749e+04 -5.760813761457e+04 -6.101868731443e+04 -6.431220084033e+04 -6.749805254845e+04 -7.058491734301e+04 -7.358103386048e+04 -7.649437711278e+04 -7.933275778304e+04 -8.210383253474e+04 -8.481488408670e+04 -8.747213656012e+04 -9.007912848983e+04 -9.263282742189e+04 -9.511438155598e+04 -9.746661190437e+04 -9.953743680643e+04 -1.009327427095e+05 -1.003495758428e+05 
        </DataArray>
        <DataArray type="Float64" Name="STRESS_2" format="ascii">
          -2.853296071610e+05 -2.827004998732e+05 -2.801601692651e+05 -2.777068070870e+05 -2.753381781715e+05 -2.730517973330e+05 -2.708449307928e+05 -2.687147048649e+05 -2.666581987518e+05 -2.646725082159e+05 -2.627547856394e+05 -2.609022650043e+05 -2.591122765300e+05 -2.573822529002e+05 -2.557097312668e+05 -2.540923533767e+05 -2.525278617611e+05 -2.510140947451e+05 -2.495489819940e+05 -2.481305372486e+05 -2.467568503337e+05 -2.454260800518e+05 -2.441364439300e+05 -2.428862071281e+05 -2.416736702098e+05 -2.404971529456e+05 -2.393549728692e+05 -2.382454124096e+05 -2.371666535288e+05 -2.361166182064e+05 -2.350926049438e+05 -2.853297724718e+05 -2.827005348700e+05 -2.801601745107e+05 -2.777068026732e+05 -2.753381695379e+05 -2.730517862315e+05 -2.708449179576e+05 -2.687146908455e+05 -2.666581839282e+05 -2.646724926926e+05 -2.627547695168e+05 -2.609022486276e+05 -2.591122598867e+05 -2.573822358609e+05 -2.557097140622e+05 -2.540923360814e+05 -2.525278440772e+05 -2.510140769391e+05 -2.495489640491e+05 -2.481305188941e+05 -2.467568316569e+05 -2.454260610281e+05 -2.441364243486e+05 -2.428861869440e+05 -2.416736492728e+05 -2.404971309495e+05 -2.393549491954e+05 -2.382453855754e+05 -2.371666197442e+05 -2.361165651382e+05 -2.350924908383e+05 -2.853302827450e+05 -2.827006438623e+05 -2.801601920864e+05 -2.777067905162e+05 -2.753381440326e+05 -2.730517528922e+05 -2.708448794547e+05 -2.687146485325e+05 -2.666581390261e+05 -2.646724458292e+05 -2.627547210476e+05 -2.609021989936e+05 -2.591122091836e+05 -2.573821844716e+05 -2.557096616975e+05 -2.540922831461e+05 -2.525277903448e+05 -2.510140227207e+05 -2.495489086536e+05 -2.481304629378e+05 -2.467567745075e+05 -2.454260028382e+05 -2.441363643059e+05 -2.428861254612e+05 -2.416735851058e+05 -2.404970633965e+05 -2.393548762920e+05 -2.382453035688e+05 -2.371665156011e+05 -2.361164015653e+05 -2.350921396846e+05 -2.853311837771e+05 -2.827008396723e+05 -2.801602269504e+05 -2.777067737502e+05 -2.753381030170e+05 -2.730516978968e+05 -2.708448152566e+05 -2.687145779301e+05 -2.666580631751e+05 -2.646723664118e+05 -2.627546391052e+05 -2.609021144880e+05 -2.591121228414e+05 -2.573820964393e+05 -2.557095726736e+05 -2.540921921742e+05 -2.525276984822e+05 -2.510139290679e+05 -2.495488140487e+05 -2.481303660398e+05 -2.467566762243e+05 -2.454259018204e+05 -2.441362610827e+05 -2.428860181320e+05 -2.416734737713e+05 -2.404969458497e+05 -2.393547498665e+05 -2.382451598359e+05 -2.371663341046e+05 -2.361161152177e+05 -2.350915234028e+05 -2.853325608010e+05 -2.827011462284e+05 -2.801602893403e+05 -2.777067560766e+05 -2.753380496529e+05 -2.730516228452e+05 -2.708447255838e+05 -2.687144777648e+05 -2.666579558154e+05 -2.646722530108e+05 -2.627545211663e+05 -2.609019931464e+05 -2.591119983517e+05 -2.573819693006e+05 -2.557094429631e+05 -2.540920604539e+05 -2.525275642110e+05 -2.510137928455e+05 -2.495486749963e+05 -2.481302245179e+05 -2.467565314430e+05 -2.454257535765e+05 -2.441361081816e+05 -2.428858601334e+05 -2.416733087370e+05 -2.404967713244e+05 -2.393545611438e+05 -2.382449454928e+05 -2.371660614988e+05 -2.361156835589e+05 -2.350905911178e+05 -2.853345538888e+05 -2.827016018309e+05 -2.801603938122e+05 -2.777067464521e+05 -2.753379871986e+05 -2.730515294986e+05 -2.708446110545e+05 -2.687143482280e+05 -2.666578147989e+05 -2.646721036597e+05 -2.627543647989e+05 -2.609018312759e+05 -2.591118319918e+05 -2.573817988704e+05 -2.557092686811e+05 -2.540918829142e+05 -2.525273831852e+05 -2.510136081399e+05 -2.495484865837e+05 -2.481300322738e+05 -2.467563341455e+05 -2.454255510751e+05 -2.441358989811e+05 -2.428856431442e+05 -2.416730811168e+05 -2.404965304047e+05 -2.393542992053e+05 -2.382446469763e+05 -2.371656786568e+05 -2.361150728038e+05 -2.350892607901e+05 -2.853373873678e+05 -2.827022664713e+05 -2.801605641694e+05 -2.777067553176e+05 -2.753379218939e+05 -2.730514199211e+05 -2.708444717571e+05 -2.687141871626e+05 -2.666576377668e+05 -2.646719146079e+05 -2.627541661475e+05 -2.609016245594e+05 -2.591116189069e+05 -2.573815800083e+05 -2.557090444650e+05 -2.540916536719e+05 -2.525271492895e+05 -2.510133688390e+05 -2.495482422255e+05 -2.481297817271e+05 -2.467560772719e+05 -2.454252860924e+05 -2.441356252103e+05 -2.428853574295e+05 -2.416727814500e+05 -2.404962106467e+05 -2.393539508090e+05 -2.382442455794e+05 -2.371651597501e+05 -2.361142316341e+05 -2.350874047941e+05 -2.853414230419e+05 -2.827032341830e+05 -2.801608340617e+05 -2.777067977919e+05 -2.753378602340e+05 -2.730512962791e+05 -2.708443061744e+05 -2.687139915024e+05 -2.666574202186e+05 -2.646716800670e+05 -2.627539185593e+05 -2.609013665384e+05 -2.591113521520e+05 -2.573813054595e+05 -2.557087632741e+05 -2.540913657887e+05 -2.525268548044e+05 -2.510130681473e+05 -2.495479341987e+05 -2.481294657957e+05 -2.467557524244e+05 -2.454249508282e+05 -2.441352765329e+05 -2.428849934024e+05 -2.416723970812e+05 -2.404957991350e+05 -2.393534980428e+05 -2.382437197274e+05 -2.371644670689e+05 -2.361130848178e+05 -2.350848213969e+05 -2.853472646330e+05 -2.827046547395e+05 -2.801612539867e+05 -2.777068937034e+05 -2.753378079586e+05 -2.730511566514e+05 -2.708441080580e+05 -2.687137527958e+05 -2.666571511933e+05 -2.646713888708e+05 -2.627536105882e+05 -2.609010456628e+05 -2.591110198467e+05 -2.573809643027e+05 -2.557084139518e+05 -2.540910089027e+05 -2.525264900381e+05 -2.510126956859e+05 -2.495475531115e+05 -2.481290750998e+05 -2.467553500433e+05 -2.454245348985e+05 -2.441348439986e+05 -2.428845392823e+05 -2.416719150186e+05 -2.404952795458e+05 -2.393529207734e+05 -2.382430374625e+05 -2.371635474323e+05 -2.361115135063e+05 -2.350811787447e+05 -2.853559740485e+05 -2.827067808316e+05 -2.801619016946e+05 -2.777070653774e+05 -2.753377657856e+05 -2.730509900820e+05 -2.708438595478e+05 -2.687134478442e+05 -2.666568071678e+05 -2.646710157421e+05 -2.627532170570e+05 -2.609006367669e+05 -2.591105995874e+05 -2.573805344139e+05 -2.557079764433e+05 -2.540905640117e+05 -2.525260383046e+05 -2.510122357657e+05 -2.495470847457e+05 -2.481285960643e+05 -2.467548578805e+05 -2.454240256238e+05 -2.441343135151e+05 -2.428839802027e+05 -2.416713182020e+05 -2.404946296346e+05 -2.393521888677e+05 -2.382421534928e+05 -2.371623149202e+05 -2.361093167122e+05 -2.350758953878e+05 -2.853695659460e+05 -2.827100658741e+05 -2.801629021610e+05 -2.777073392610e+05 -2.753377161833e+05 -2.730507570164e+05 -2.708435093688e+05 -2.687130199816e+05 -2.666563270265e+05 -2.646705013577e+05 -2.627526795931e+05 -2.609000848784e+05 -2.591100383711e+05 -2.573799676728e+05 -2.557074057344e+05 -2.540899908740e+05 -2.525254620356e+05 -2.510116558265e+05 -2.495464986780e+05 -2.481280013347e+05 -2.467542499392e+05 -2.454233994244e+05 -2.441336607245e+05 -2.428832909996e+05 -2.416705770890e+05 -2.404938125964e+05 -2.393512499195e+05 -2.382409857447e+05 -2.371606136635e+05 -2.361061229252e+05 -2.350678621913e+05 -2.853922771854e+05 -2.827154068755e+05 -2.801644753414e+05 -2.777077346145e+05 -2.753375925997e+05 -2.730503448721e+05 -2.708429212360e+05 -2.687123216767e+05 -2.666555613883e+05 -2.646696965802e+05 -2.627518547077e+05 -2.608992527032e+05 -2.591092080088e+05 -2.573791440585e+05 -2.557065921791e+05 -2.540891880705e+05 -2.525246699159e+05 -2.510108722269e+05 -2.495457201690e+05 -2.481272225171e+05 -2.467534644353e+05 -2.454225969009e+05 -2.441328281413e+05 -2.428824103605e+05 -2.416696221708e+05 -2.404927411764e+05 -2.393499873426e+05 -2.382393583539e+05 -2.371581233446e+05 -2.361011582626e+05 -2.350547243326e+05 -2.854344129550e+05 -2.827248614769e+05 -2.801670328752e+05 -2.777082379253e+05 -2.753371991859e+05 -2.730494479084e+05 -2.708417237911e+05 -2.687109509020e+05 -2.666541003548e+05 -2.646682000302e+05 -2.627503570511e+05 -2.608977757658e+05 -2.591077658295e+05 -2.573777451086e+05 -2.557052403884e+05 -2.540878847755e+05 -2.525234135058e+05 -2.510096591649e+05 -2.495445436190e+05 -2.481260727089e+05 -2.467523273779e+05 -2.454214528998e+05 -2.441316490085e+05 -2.428811579577e+05 -2.416682449163e+05 -2.404911673375e+05 -2.393480948730e+05 -2.382368561300e+05 -2.371541020274e+05 -2.360925484787e+05 -2.350307211636e+05 -2.855264980002e+05 -2.827448165048e+05 -2.801714080106e+05 -2.777084214940e+05 -2.753357905410e+05 -2.730471546015e+05 -2.708388671518e+05 -2.687077553995e+05 -2.666507367313e+05 -2.646647923806e+05 -2.627469919535e+05 -2.608945099642e+05 -2.591046336498e+05 -2.573747657394e+05 -2.557024228214e+05 -2.540852294681e+05 -2.525209137625e+05 -2.510073017993e+05 -2.495423082623e+05 -2.481239296970e+05 -2.467502372359e+05 -2.454193658313e+05 -2.441295064039e+05 -2.428788950944e+05 -2.416657933931e+05 -2.404884404799e+05 -2.393448990973e+05 -2.382325493597e+05 -2.371464763830e+05 -2.360744461927e+05 -2.349789754523e+05 -2.857748980353e+05 -2.828078323374e+05 -2.801848828709e+05 -2.777068239907e+05 -2.753292207101e+05 -2.730386746520e+05 -2.708295036956e+05 -2.686979432853e+05 -2.666407285702e+05 -2.646547700672e+05 -2.627370941935e+05 -2.608848414623e+05 -2.590952716626e+05 -2.573657639708e+05 -2.556938140028e+05 -2.540770312445e+05 -2.525131317696e+05 -2.509999297334e+05 -2.495353321746e+05 -2.481173304655e+05 -2.467439898953e+05 -2.454134419726e+05 -2.441238701753e+05 -2.428734833356e+05 -2.416604581358e+05 -2.404827831313e+05 -2.393378316562e+05 -2.382211780887e+05 -2.371232898727e+05 -2.360202613887e+05 -2.348421854146e+05 -2.868309476528e+05 -2.832135738198e+05 -2.803366327946e+05 -2.777443303765e+05 -2.753111221319e+05 -2.729917242773e+05 -2.707668920741e+05 -2.686266535498e+05 -2.665646972516e+05 -2.645763345840e+05 -2.626576959262e+05 -2.608053877397e+05 -2.590163316730e+05 -2.572876819730e+05 -2.556167780819e+05 -2.540011125443e+05 -2.524383080276e+05 -2.509260991508e+05 -2.494623115640e+05 -2.480448393516e+05 -2.466716159860e+05 -2.453405677088e+05 -2.440495295395e+05 -2.427960919512e+05 -2.415772951015e+05 -2.403889794077e+05 -2.392243562192e+05 -2.380707140541e+05 -2.369014866789e+05 -2.356281230491e+05 -2.341312960619e+05 -2.790991354213e+05 -2.791294967165e+05 -2.783642839830e+05 -2.769896053393e+05 -2.752969257147e+05 -2.734415754428e+05 -2.715110714818e+05 -2.695563601273e+05 -2.676103296365e+05 -2.656918106619e+05 -2.638123357251e+05 -2.619788349147e+05 -2.601953026472e+05 -2.584638652763e+05 -2.567854879040e+05 -2.551604566653e+05 -2.535887222298e+05 -2.520701626732e+05 -2.506048224643e+05 -2.491931316776e+05 -2.478361547220e+05 -2.465359279133e+05 -2.452959290816e+05 -2.441217958534e+05 -2.430220237783e+05 -2.420101815799e+05 -2.411102907286e+05 -2.403629867254e+05 -2.398431326447e+05 -2.396983480424e+05 -2.401833409296e+05 
        </DataArray>
        <DataArray type="Float64" Name="STRESS_3" format="ascii">
          -2.858723096117e+05 -2.832225339910e+05 -2.806688142572e+05 -2.782030506124e+05 -2.758221725090e+05 -2.735236431905e+05 -2.713047988479e+05 -2.691628318452e+05 -2.670948664659e+05 -2.650980255698e+05 -2.631694758029e+05 -2.613064567873e+05 -2.595062986791e+05 -2.577664306490e+05 -2.560843842703e+05 -2.544577946985e+05 -2.528843976576e+05 -2.513620251950e+05 -2.498886015027e+05 -2.484621364656e+05 -2.470807181193e+05 -2.457425061209e+05 -2.444457222923e+05 -2.431886401829e+05 -2.419695729735e+05 -2.407868553705e+05 -2.396388118475e+05 -2.385236853264e+05 -2.374394385114e+05 -2.363831491628e+05 -2.353487192304e+05 -2.858723768799e+05 -2.832225029367e+05 -2.806687835477e+05 -2.782030289114e+05 -2.758221572933e+05 -2.735236316044e+05 -2.713047890554e+05 -2.691628229692e+05 -2.670948580813e+05 -2.650980172904e+05 -2.631694674359e+05 -2.613064484992e+05 -2.595062903704e+05 -2.577664221299e+05 -2.560843757371e+05 -2.544577862175e+05 -2.528843889425e+05 -2.513620164700e+05 -2.498885928210e+05 -2.484621275837e+05 -2.470807091488e+05 -2.457424970789e+05 -2.444457129453e+05 -2.431886303674e+05 -2.419695622825e+05 -2.407868428249e+05 -2.396387953911e+05 -2.385236603418e+05 -2.374393942098e+05 -2.363830569999e+05 -2.353484959251e+05 -2.858732355339e+05 -2.832227112772e+05 -2.806688540393e+05 -2.782030582774e+05 -2.758221697971e+05 -2.735236347554e+05 -2.713047861656e+05 -2.691628156385e+05 -2.670948476609e+05 -2.650980045042e+05 -2.631694526515e+05 -2.613064321642e+05 -2.595062726464e+05 -2.577664033878e+05 -2.560843556857e+05 -2.544577652962e+05 -2.528843669692e+05 -2.513619937405e+05 -2.498885687137e+05 -2.484621027771e+05 -2.470806830562e+05 -2.457424699031e+05 -2.444456839919e+05 -2.431886001149e+05 -2.419695295505e+05 -2.407868068481e+05 -2.396387536082e+05 -2.385236064630e+05 -2.374393061405e+05 -2.363828663559e+05 -2.353479610215e+05 -2.858747544852e+05 -2.832230867611e+05 -2.806689865399e+05 -2.782031187154e+05 -2.758221993833e+05 -2.735236472013e+05 -2.713047873748e+05 -2.691628088750e+05 -2.670948342790e+05 -2.650979863460e+05 -2.631694308988e+05 -2.613064068130e+05 -2.595062444013e+05 -2.577663724921e+05 -2.560843228741e+05 -2.544577296172e+05 -2.528843295411e+05 -2.513619537879e+05 -2.498885270609e+05 -2.484620581803e+05 -2.470806365405e+05 -2.457424202729e+05 -2.444456319005e+05 -2.431885438678e+05 -2.419694693548e+05 -2.407867403836e+05 -2.396386771327e+05 -2.385235071590e+05 -2.374391476132e+05 -2.363825269480e+05 -2.353470157792e+05 -2.858770811530e+05 -2.832236763580e+05 -2.806692064793e+05 -2.782032265138e+05 -2.758222602835e+05 -2.735236806103e+05 -2.713048020764e+05 -2.691628097046e+05 -2.670948249581e+05 -2.650979682598e+05 -2.631694056542e+05 -2.613063756969e+05 -2.595062077995e+05 -2.577663309111e+05 -2.560842764745e+05 -2.544576790631e+05 -2.528842743203e+05 -2.513618945973e+05 -2.498884632167e+05 -2.484619901531e+05 -2.470805637269e+05 -2.457423427024e+05 -2.444455485780e+05 -2.431884546028e+05 -2.419693724406e+05 -2.407866331815e+05 -2.396385533472e+05 -2.385233487365e+05 -2.374388977680e+05 -2.363820020564e+05 -2.353455702800e+05 -2.858804558025e+05 -2.832245538584e+05 -2.806695511472e+05 -2.782034091671e+05 -2.758223722983e+05 -2.735237515930e+05 -2.713048442219e+05 -2.691628303417e+05 -2.670948282556e+05 -2.650979576964e+05 -2.631693828618e+05 -2.613063423634e+05 -2.595061650570e+05 -2.577662793348e+05 -2.560842164485e+05 -2.544576113020e+05 -2.528841987861e+05 -2.513618112541e+05 -2.498883722118e+05 -2.484618916067e+05 -2.470804566819e+05 -2.457422272729e+05 -2.444454236963e+05 -2.431883195340e+05 -2.419692246023e+05 -2.407864697083e+05 -2.396383643259e+05 -2.385231090337e+05 -2.374385251216e+05 -2.363812340493e+05 -2.353434773674e+05 -2.858852608243e+05 -2.832258322809e+05 -2.806700767317e+05 -2.782037029584e+05 -2.758225639773e+05 -2.735238820120e+05 -2.713049315327e+05 -2.691628842099e+05 -2.670948554597e+05 -2.650979628061e+05 -2.631693687680e+05 -2.613063109517e+05 -2.595061182721e+05 -2.577662180424e+05 -2.560841412526e+05 -2.544575227517e+05 -2.528840975625e+05 -2.513616968789e+05 -2.498882453016e+05 -2.484617514668e+05 -2.470803035153e+05 -2.457420597396e+05 -2.444452416456e+05 -2.431881203696e+05 -2.419690067018e+05 -2.407862266647e+05 -2.396380844239e+05 -2.385227546162e+05 -2.374379831091e+05 -2.363801322088e+05 -2.353405028723e+05 -2.858921083185e+05 -2.832276840961e+05 -2.806708623543e+05 -2.782041582594e+05 -2.758228718433e+05 -2.735241001663e+05 -2.713050853986e+05 -2.691629881586e+05 -2.670949191614e+05 -2.650979922648e+05 -2.631693686333e+05 -2.613062843492e+05 -2.595060674800e+05 -2.577661444372e+05 -2.560840463267e+05 -2.544574069068e+05 -2.528839612805e+05 -2.513615409104e+05 -2.498880690081e+05 -2.484615547668e+05 -2.470800859987e+05 -2.457418205773e+05 -2.444449785499e+05 -2.431878321554e+05 -2.419686890060e+05 -2.407858722271e+05 -2.396376747503e+05 -2.385222392336e+05 -2.374371999721e+05 -2.363785572735e+05 -2.353362705761e+05 -2.859020142148e+05 -2.832303801862e+05 -2.806720248524e+05 -2.782048441938e+05 -2.758233426104e+05 -2.735244391222e+05 -2.713053294252e+05 -2.691631590239e+05 -2.670950295219e+05 -2.650980519522e+05 -2.631693843294e+05 -2.613062609044e+05 -2.595060071344e+05 -2.577660504315e+05 -2.560839200469e+05 -2.544572495131e+05 -2.528837730306e+05 -2.513613227479e+05 -2.498878207166e+05 -2.484612760439e+05 -2.470797756627e+05 -2.457414777057e+05 -2.444446010586e+05 -2.431874161530e+05 -2.419682289668e+05 -2.407853579500e+05 -2.396370798201e+05 -2.385214896084e+05 -2.374360655562e+05 -2.363762834793e+05 -2.353301527824e+05 -2.859167606864e+05 -2.832343723096e+05 -2.806737464999e+05 -2.782058578138e+05 -2.758240373918e+05 -2.735249385873e+05 -2.713056880963e+05 -2.691634084695e+05 -2.670951911031e+05 -2.650981384132e+05 -2.631694063797e+05 -2.613062252992e+05 -2.595059191275e+05 -2.577659128728e+05 -2.560837360724e+05 -2.544570203679e+05 -2.528835001905e+05 -2.513610058815e+05 -2.498874605587e+05 -2.484608714446e+05 -2.470793253399e+05 -2.457409789915e+05 -2.444440513199e+05 -2.431868095664e+05 -2.419675575385e+05 -2.407846053860e+05 -2.396362078516e+05 -2.385203887293e+05 -2.374343957028e+05 -2.363729243988e+05 -2.353210393918e+05 -2.859397286257e+05 -2.832404702502e+05 -2.806763380937e+05 -2.782073539000e+05 -2.758250380105e+05 -2.735256401561e+05 -2.713061774025e+05 -2.691637347496e+05 -2.670953858894e+05 -2.650982242543e+05 -2.631693981049e+05 -2.613061344284e+05 -2.595057530739e+05 -2.577656773515e+05 -2.560834342600e+05 -2.544566552858e+05 -2.528830726135e+05 -2.513605166761e+05 -2.498869087548e+05 -2.484602560707e+05 -2.470786435108e+05 -2.457402275845e+05 -2.444432243375e+05 -2.431858995974e+05 -2.419665506759e+05 -2.407834752412e+05 -2.396348926329e+05 -2.385187211281e+05 -2.374318538458e+05 -2.363677659959e+05 -2.353068008278e+05 -2.859780513793e+05 -2.832502624946e+05 -2.806804029339e+05 -2.782096259519e+05 -2.758264781479e+05 -2.735265837431e+05 -2.713067839828e+05 -2.691640918822e+05 -2.670955469493e+05 -2.650982237846e+05 -2.631692600307e+05 -2.613058758296e+05 -2.595053869405e+05 -2.577652119575e+05 -2.560828756517e+05 -2.544560065708e+05 -2.528823357626e+05 -2.513596913750e+05 -2.498859936285e+05 -2.484592482495e+05 -2.470775397373e+05 -2.457390213081e+05 -2.444419063127e+05 -2.431844541389e+05 -2.419649499109e+05 -2.407816671138e+05 -2.396327743850e+05 -2.385160313800e+05 -2.374277617945e+05 -2.363593431581e+05 -2.352828852908e+05 -2.860493688803e+05 -2.832672519111e+05 -2.806871968374e+05 -2.782134294103e+05 -2.758287689045e+05 -2.735278871917e+05 -2.713074248366e+05 -2.691642854008e+05 -2.670954254479e+05 -2.650978639686e+05 -2.631687040451e+05 -2.613051476923e+05 -2.595045018028e+05 -2.577641800737e+05 -2.560817037312e+05 -2.544546998242e+05 -2.528808976444e+05 -2.513581244511e+05 -2.498842979479e+05 -2.484574209539e+05 -2.470755721026e+05 -2.457368944463e+05 -2.444395850738e+05 -2.431818837377e+05 -2.419620554317e+05 -2.407783577819e+05 -2.396289211703e+05 -2.385112792596e+05 -2.374206570687e+05 -2.363441549815e+05 -2.352379837809e+05 -2.862094406334e+05 -2.833017157110e+05 -2.806983569761e+05 -2.782200089665e+05 -2.758334684745e+05 -2.735308175588e+05 -2.713087059840e+05 -2.691642372116e+05 -2.670944102459e+05 -2.650961828346e+05 -2.631665703162e+05 -2.613026965829e+05 -2.595018119311e+05 -2.577612951233e+05 -2.560786476529e+05 -2.544514836696e+05 -2.528775216734e+05 -2.513545762997e+05 -2.498805473389e+05 -2.484534124391e+05 -2.470712218990e+05 -2.457320942442e+05 -2.444342208080e+05 -2.431758754951e+05 -2.419554179598e+05 -2.407712407820e+05 -2.396214754499e+05 -2.385028884150e+05 -2.374073133702e+05 -2.363109628724e+05 -2.351375220878e+05 -2.866922896887e+05 -2.834165739970e+05 -2.807136406986e+05 -2.782156972906e+05 -2.758307440062e+05 -2.735322234412e+05 -2.713121398390e+05 -2.691673565983e+05 -2.670956900577e+05 -2.650949147374e+05 -2.631626074690e+05 -2.612962045532e+05 -2.594930883200e+05 -2.577506550687e+05 -2.560663616592e+05 -2.544377574108e+05 -2.528625016461e+05 -2.513383746518e+05 -2.498632893824e+05 -2.484352997078e+05 -2.470526064590e+05 -2.457135619575e+05 -2.444166543341e+05 -2.431604405397e+05 -2.419433527441e+05 -2.407631872227e+05 -2.396158385233e+05 -2.384922405802e+05 -2.373710370185e+05 -2.362011388853e+05 -2.348520131824e+05 -2.882026707284e+05 -2.842863943785e+05 -2.811322750831e+05 -2.783621091989e+05 -2.758244378066e+05 -2.734461835726e+05 -2.711891454200e+05 -2.690317774269e+05 -2.669609733137e+05 -2.649681363946e+05 -2.630471957619e+05 -2.611935576635e+05 -2.594035253250e+05 -2.576739651104e+05 -2.560021059047e+05 -2.543854099367e+05 -2.528214836257e+05 -2.513080080550e+05 -2.498426697526e+05 -2.484230836383e+05 -2.470466942049e+05 -2.457106330299e+05 -2.444115001213e+05 -2.431450232148e+05 -2.419055047223e+05 -2.406848965774e+05 -2.394712417453e+05 -2.382460569421e+05 -2.369801276371e+05 -2.356564474738e+05 -2.341773084505e+05 -2.794073571354e+05 -2.792257909245e+05 -2.784042697902e+05 -2.770070649957e+05 -2.753041222493e+05 -2.734438044231e+05 -2.715112993356e+05 -2.695577889397e+05 -2.676123136424e+05 -2.656940159855e+05 -2.638145930711e+05 -2.619810634284e+05 -2.601974692543e+05 -2.584659622578e+05 -2.567875203227e+05 -2.551624349455e+05 -2.535906571881e+05 -2.520720614771e+05 -2.506066840486e+05 -2.491949403497e+05 -2.478378699679e+05 -2.465374670820e+05 -2.452971373302e+05 -2.441223917684e+05 -2.430225502457e+05 -2.420127701221e+05 -2.411167308285e+05 -2.403768650511e+05 -2.398722135859e+05 -2.397616292124e+05 -2.403422168495e+05 
        </DataArray>
        <DataArray type="Float64" Name="STRESS_XX" format="ascii">
          -1.040206288827e+03 -6.415611016750e+03 -1.156815875109e+04 -1.651896415186e+04 -2.128136674045e+04 -2.586649071464e+04 -3.028399744735e+04 -3.454248087105e+04 -3.864971487374e+04 -4.261281975629e+04 -4.643837744734e+04 -5.013251539850e+04 -5.370096898639e+04 -5.714912589759e+04 -6.048206088896e+04 -6.370456502411e+04 -6.682116574845e+04 -6.983614294846e+04 -7.275354475842e+04 -7.557719605607e+04 -7.831070458185e+04 -8.095746729523e+04 -8.352066952259e+04 -8.600328167439e+04 -8.840805346961e+04 -9.073750202405e+04 -9.299389784235e+04 -9.517925673129e+04 -9.729536408273e+04 -9.934392976840e+04 -1.013279022151e+05 -3.773169731222e+03 -9.074375868624e+03 -1.415336830217e+04 -1.903302075498e+04 -2.372681547229e+04 -2.824580895913e+04 -3.259955777385e+04 -3.679654935329e+04 -4.084445578640e+04 -4.475030119713e+04 -4.852057701963e+04 -5.216132576915e+04 -5.567820147673e+04 -5.907651521864e+04 -6.236126983470e+04 -6.553718742509e+04 -6.860872954019e+04 -7.158011519035e+04 -7.445533298559e+04 -7.723815166111e+04 -7.993212651450e+04 -8.254060392935e+04 -8.506672125264e+04 -8.751340388701e+04 -8.988335811301e+04 -9.217905865570e+04 -9.440273065641e+04 -9.655632911614e+04 -9.864152158653e+04 -1.006597028593e+05 -1.026126649559e+05 -1.186706803483e+04 -1.694850408985e+04 -2.180965220289e+04 -2.647857879301e+04 -3.096918557940e+04 -3.529232859776e+04 -3.945725389005e+04 -4.347213285538e+04 -4.734433667983e+04 -5.108060425994e+04 -5.468715929432e+04 -5.816979174972e+04 -6.153391552555e+04 -6.478461598400e+04 -6.792668040912e+04 -7.096462831461e+04 -7.390272674678e+04 -7.674501261903e+04 -7.949529835515e+04 -8.215718939829e+04 -8.473408204047e+04 -8.722917495817e+04 -8.964546227158e+04 -9.198573767473e+04 -9.425257646624e+04 -9.644832935761e+04 -9.857508693479e+04 -1.006346254274e+05 -1.026282587062e+05 -1.045564505395e+05 -1.064175607383e+05 -2.501096548669e+04 -2.973542475394e+04 -3.424279326683e+04 -3.856951609083e+04 -4.273016064538e+04 -4.673525878995e+04 -5.059355147479e+04 -5.431269608724e+04 -5.789957291282e+04 -6.136046139794e+04 -6.470114899530e+04 -6.792701327837e+04 -7.104308164211e+04 -7.405407061663e+04 -7.696441968888e+04 -7.977831515398e+04 -8.249971399848e+04 -8.513235126928e+04 -8.767975995391e+04 -9.014527295828e+04 -9.253203537407e+04 -9.484299981773e+04 -9.708093453637e+04 -9.924841069998e+04 -1.013477997426e+05 -1.033812454107e+05 -1.053506223431e+05 -1.072574114944e+05 -1.091023584416e+05 -1.108844016472e+05 -1.125963061995e+05 -4.269995059136e+04 -4.694379634077e+04 -5.097501426058e+04 -5.484119399379e+04 -5.855778251787e+04 -6.213486222961e+04 -6.558049500726e+04 -6.890164652163e+04 -7.210453911679e+04 -7.519482841540e+04 -7.817771729185e+04 -8.105803064306e+04 -8.384027171721e+04 -8.652866278401e+04 -8.912717353543e+04 -9.163954646455e+04 -9.406931413139e+04 -9.641981281358e+04 -9.869419206843e+04 -1.008954255469e+05 -1.030263130518e+05 -1.050894826496e+05 -1.070873918205e+05 -1.090223202389e+05 -1.108963569302e+05 -1.127113719444e+05 -1.144689466196e+05 -1.161701665970e+05 -1.178150037367e+05 -1.194003347288e+05 -1.209113391477e+05 -6.425457551215e+04 -6.791239902268e+04 -7.136334010686e+04 -7.466832466896e+04 -7.784381865584e+04 -8.089935334825e+04 -8.384215588243e+04 -8.667834993449e+04 -8.941335367216e+04 -9.205206580741e+04 -9.459897386884e+04 -9.705823054012e+04 -9.943370098010e+04 -1.017290036328e+05 -1.039475372196e+05 -1.060925020125e+05 -1.081669147966e+05 -1.101736239240e+05 -1.121153150123e+05 -1.139945207263e+05 -1.158136215058e+05 -1.175748499109e+05 -1.192802848239e+05 -1.209318498233e+05 -1.225312902081e+05 -1.240801437417e+05 -1.255796307278e+05 -1.270303560206e+05 -1.284313381566e+05 -1.297769187135e+05 -1.310429260432e+05 -8.884703021361e+04 -9.183556427878e+04 -9.462431973746e+04 -9.728899726643e+04 -9.984714512026e+04 -1.023076431452e+05 -1.046767654491e+05 -1.069596704078e+05 -1.091608595765e+05 -1.112843676598e+05 -1.133338666165e+05 -1.153127392735e+05 -1.172241254498e+05 -1.190709544278e+05 -1.208559718942e+05 -1.225817600923e+05 -1.242507491455e+05 -1.258652277926e+05 -1.274273544156e+05 -1.289391571158e+05 -1.304025401118e+05 -1.318192811573e+05 -1.331910317229e+05 -1.345193032049e+05 -1.358054548144e+05 -1.370506386614e+05 -1.382556680617e+05 -1.394205883800e+05 -1.405433261490e+05 -1.416152756887e+05 -1.426014138104e+05 -1.155330676226e+05 -1.177941655962e+05 -1.198641411110e+05 -1.218339674856e+05 -1.237222258287e+05 -1.255370543779e+05 -1.272836841048e+05 -1.289662262760e+05 -1.305881857772e+05 -1.321526567598e+05 -1.336624288609e+05 -1.351200494823e+05 -1.365278690683e+05 -1.378880694497e+05 -1.392026897829e+05 -1.404736393786e+05 -1.417027117091e+05 -1.428915909755e+05 -1.440418597540e+05 -1.451550012066e+05 -1.462324011248e+05 -1.472753457213e+05 -1.482850180442e+05 -1.492624893563e+05 -1.502086925771e+05 -1.511243650829e+05 -1.520098728503e+05 -1.528646536230e+05 -1.536854173983e+05 -1.544602888107e+05 -1.551421389148e+05 -1.432885008101e+05 -1.447909880233e+05 -1.461129990491e+05 -1.473600710709e+05 -1.485516109014e+05 -1.496949335123e+05 -1.507941704953e+05 -1.518523392486e+05 -1.528719035672e+05 -1.538549838157e+05 -1.548034473620e+05 -1.557189732802e+05 -1.566030903182e+05 -1.574572054913e+05 -1.582826191377e+05 -1.590805436762e+05 -1.598521085283e+05 -1.605983699231e+05 -1.613203114007e+05 -1.620188494389e+05 -1.626948298761e+05 -1.633490282884e+05 -1.639821413585e+05 -1.645947786159e+05 -1.651874322077e+05 -1.657604065875e+05 -1.663135982043e+05 -1.668457999760e+05 -1.673524229738e+05 -1.678180502009e+05 -1.681823940450e+05 -1.710489846685e+05 -1.717891498448e+05 -1.723623941446e+05 -1.728864745517e+05 -1.733811982892e+05 -1.738529585595e+05 -1.743047625803e+05 -1.747385251542e+05 -1.751556706275e+05 -1.755573366570e+05 -1.759444721304e+05 -1.763178857551e+05 -1.766782850926e+05 -1.770262982293e+05 -1.773624915497e+05 -1.776873760368e+05 -1.780014198474e+05 -1.783050484226e+05 -1.785986490206e+05 -1.788825681796e+05 -1.791571140372e+05 -1.794225485968e+05 -1.796790841563e+05 -1.799268662038e+05 -1.801659463145e+05 -1.803961921961e+05 -1.806170265193e+05 -1.808265757348e+05 -1.810188865383e+05 -1.811747603290e+05 -1.812197326278e+05 -1.977518649374e+05 -1.977521473965e+05 -1.976039470930e+05 -1.974323954712e+05 -1.972569014403e+05 -1.970828038310e+05 -1.969119839852e+05 -1.967452823665e+05 -1.965831148790e+05 -1.964256748383e+05 -1.962730217429e+05 -1.961251284925e+05 -1.959819099965e+05 -1.958432480405e+05 -1.957089980362e+05 -1.955790000016e+05 -1.954530833665e+05 -1.953310686535e+05 -1.952127659560e+05 -1.950979775010e+05 -1.949864906839e+05 -1.948780754129e+05 -1.947724745607e+05 -1.946693901924e+05 -1.945684442608e+05 -1.944690819545e+05 -1.943702564971e+05 -1.942694211353e+05 -1.941591921799e+05 -1.940163018115e+05 -1.937507198439e+05 -2.223794158806e+05 -2.216841555847e+05 -2.208682877276e+05 -2.200548451955e+05 -2.192613309935e+05 -2.184918041617e+05 -2.177470367265e+05 -2.170268484770e+05 -2.163307110739e+05 -2.156579371286e+05 -2.150077625110e+05 -2.143793858566e+05 -2.137719923058e+05 -2.131847709405e+05 -2.126169243367e+05 -2.120676711786e+05 -2.115362521824e+05 -2.110219282881e+05 -2.105239795967e+05 -2.100417024997e+05 -2.095744064990e+05 -2.091214056005e+05 -2.086820102366e+05 -2.082555076989e+05 -2.078411196841e+05 -2.074378861462e+05 -2.070443084356e+05 -2.066571663216e+05 -2.062675550494e+05 -2.058475717160e+05 -2.052888535681e+05 -2.440052803792e+05 -2.426695982891e+05 -2.412625893081e+05 -2.398850575373e+05 -2.385491961909e+05 -2.372573206617e+05 -2.360091578372e+05 -2.348036136886e+05 -2.336393018345e+05 -2.325147354957e+05 -2.314284056669e+05 -2.303788186534e+05 -2.293645132098e+05 -2.283840695116e+05 -2.274361144365e+05 -2.265193233167e+05 -2.256324205099e+05 -2.247741775542e+05 -2.239434083563e+05 -2.231389672835e+05 -2.223597405754e+05 -2.216046358133e+05 -2.208725701168e+05 -2.201624492463e+05 -2.194731230410e+05 -2.188032696243e+05 -2.181510013239e+05 -2.175124682086e+05 -2.168769677553e+05 -2.162102770890e+05 -2.153789107558e+05 -2.618591014191e+05 -2.599139818563e+05 -2.580047196200e+05 -2.561614325765e+05 -2.543800865492e+05 -2.526590548794e+05 -2.509970448656e+05 -2.493924306612e+05 -2.478432699379e+05 -2.463474602837e+05 -2.449028653246e+05 -2.435073846233e+05 -2.421589880468e+05 -2.408557288887e+05 -2.395957450926e+05 -2.383772546117e+05 -2.371985494998e+05 -2.360579892358e+05 -2.349539906195e+05 -2.338850197467e+05 -2.328495846545e+05 -2.318462278764e+05 -2.308735262646e+05 -2.299300933833e+05 -2.290145680684e+05 -2.281255059527e+05 -2.272608510021e+05 -2.264159010037e+05 -2.255762931088e+05 -2.246952308971e+05 -2.235979094588e+05 -2.754991619102e+05 -2.728243383830e+05 -2.704555979605e+05 -2.682455046910e+05 -2.661338697668e+05 -2.640991800945e+05 -2.621337658195e+05 -2.602344454781e+05 -2.583992280255e+05 -2.566262573458e+05 -2.549135480696e+05 -2.532589763240e+05 -2.516603360737e+05 -2.501153972285e+05 -2.486219509622e+05 -2.471778440856e+05 -2.457809995170e+05 -2.444294312522e+05 -2.431212590908e+05 -2.418547204239e+05 -2.406281835631e+05 -2.394401632941e+05 -2.382893232517e+05 -2.371744364287e+05 -2.360942170876e+05 -2.350467800782e+05 -2.340280946650e+05 -2.330277388642e+05 -2.320174074492e+05 -2.309198824424e+05 -2.294982053482e+05 -2.850314353309e+05 -2.815838425852e+05 -2.785823079422e+05 -2.758920036123e+05 -2.734142711074e+05 -2.710910785559e+05 -2.688883095628e+05 -2.667852135959e+05 -2.647685412401e+05 -2.628293531596e+05 -2.609612601496e+05 -2.591594301858e+05 -2.574200102248e+05 -2.557397792854e+05 -2.541159340269e+05 -2.525459485903e+05 -2.510274772482e+05 -2.495582801559e+05 -2.481361520206e+05 -2.467588440293e+05 -2.454239633042e+05 -2.441288248443e+05 -2.428702154904e+05 -2.416440059572e+05 -2.404444802364e+05 -2.392631215310e+05 -2.380863404947e+05 -2.368910530896e+05 -2.356357072461e+05 -2.342413596702e+05 -2.325368468280e+05 -2.793917607329e+05 -2.792236567281e+05 -2.783985391834e+05 -2.770018139332e+05 -2.753003402974e+05 -2.734412942563e+05 -2.715094508270e+05 -2.695553172518e+05 -2.676096513297e+05 -2.656913599931e+05 -2.638120268184e+05 -2.619786141654e+05 -2.601951362901e+05 -2.584637314985e+05 -2.567853718644e+05 -2.551603472569e+05 -2.535886097992e+05 -2.520700371525e+05 -2.506046715072e+05 -2.491929384341e+05 -2.478358949050e+05 -2.465355658471e+05 -2.452954126412e+05 -2.441210510819e+05 -2.430214791416e+05 -2.420112627470e+05 -2.411147225499e+05 -2.403745097517e+05 -2.398702503193e+05 -2.397613195054e+05 -2.403368570132e+05 
        </DataArray>
        <DataArray type="Float64" Name="STRESS_XY" format="ascii">
          2.449230572231e+02 1.644925015831e+02 1.189666202291e+02 8.905584600142e+01 6.861084571838e+01 5.438171002952e+01 4.435861004701e+01 3.721572488956e+01 3.205608771797e+01 2.826515013296e+01 2.541844306325e+01 2.321943896516e+01 2.145793677815e+01 1.998102634598e+01 1.867354163022e+01 1.744300099335e+01 1.620896200676e+01 1.489444335483e+01 1.341869520274e+01 1.168922347538e+01 9.595221918640e+00 6.998738176904e+00 3.724422487290e+00 -4.519021689963e-01 -5.817944918886e+00 -1.273964443446e+01 -2.167064239402e+01 -3.313250918788e+01 -4.758378431857e+01 -6.490914434159e+01 -8.194869273752e+01 2.776563050033e+04 2.699781851571e+04 2.624866029177e+04 2.552577168057e+04 2.482910974829e+04 2.415767726804e+04 2.351034568024e+04 2.288601889445e+04 2.228366202893e+04 2.170230160444e+04 2.114101905008e+04 2.059894738460e+04 2.007526721442e+04 1.956920247187e+04 1.908001673912e+04 1.860701242312e+04 1.814952728149e+04 1.770693211726e+04 1.727862929301e+04 1.686405231749e+04 1.646266234824e+04 1.607394841654e+04 1.569742648989e+04 1.533263737576e+04 1.497914531338e+04 1.463653200076e+04 1.430437632151e+04 1.398218871385e+04 1.366918924371e+04 1.336357651404e+04 1.305910231729e+04 5.446541943001e+04 5.295833692079e+04 5.148864750570e+04 5.007061568677e+04 4.870405745629e+04 4.738699438779e+04 4.611720705366e+04 4.489254620730e+04 4.371098135534e+04 4.257060118234e+04 4.146960548714e+04 4.040629405997e+04 3.937905827028e+04 3.838637568030e+04 3.742680349744e+04 3.649897209727e+04 3.560158194738e+04 3.473339981416e+04 3.389325393850e+04 3.308003123938e+04 3.229267627674e+04 3.153018647528e+04 3.079161190445e+04 3.007605222378e+04 2.938265307207e+04 2.871059385932e+04 2.805905134516e+04 2.742707131797e+04 2.681314560540e+04 2.621381271596e+04 2.561710124533e+04 7.907453401657e+04 7.688412849836e+04 7.475005505913e+04 7.269130408936e+04 7.070735085224e+04 6.879526791182e+04 6.695182232107e+04 6.517389003586e+04 6.345852316549e+04 6.180294774299e+04 6.020454922051e+04 5.866085927079e+04 5.716954334999e+04 5.572839113993e+04 5.433530699352e+04 5.298830370167e+04 5.168549456377e+04 5.042508856294e+04 4.920538464702e+04 4.802476789760e+04 4.688170474948e+04 4.577474054294e+04 4.470249609970e+04 4.366366447598e+04 4.265700552745e+04 4.168133005653e+04 4.073544726563e+04 3.981798917643e+04 3.892682178144e+04 3.805710311969e+04 3.719217842691e+04 1.006485893674e+05 9.785598224295e+04 9.513902054849e+04 9.251855704631e+04 8.999342714688e+04 8.755979970315e+04 8.521353671182e+04 8.295065702179e+04 8.076740792206e+04 7.866025884244e+04 7.662588161707e+04 7.466113516559e+04 7.276304825478e+04 7.092880738896e+04 6.915574564858e+04 6.744133373234e+04 6.578317030085e+04 6.417897575948e+04 6.262658548608e+04 6.112394361903e+04 5.966909870494e+04 5.826019932365e+04 5.689549008203e+04 5.557330802624e+04 5.429207567337e+04 5.305028232909e+04 5.184642216470e+04 5.067878646466e+04 4.954476646970e+04 4.843855344231e+04 4.734034935316e+04 1.183600091102e+05 1.150682403945e+05 1.118720797318e+05 1.087904507500e+05 1.058211492382e+05 1.029594915247e+05 1.002005731358e+05 9.753970479065e+04 9.497247250254e+04 9.249472347839e+04 9.010254523711e+04 8.779224409029e+04 8.556032593134e+04 8.340348264867e+04 8.131857896576e+04 7.930263982298e+04 7.735284208621e+04 7.546650547096e+04 7.364108433743e+04 7.187416113972e+04 7.016344202443e+04 6.850674923753e+04 6.690201938552e+04 6.534729735724e+04 6.384073003462e+04 6.238054548625e+04 6.096499012765e+04 5.959210850447e+04 5.825901472509e+04 5.695947411094e+04 5.567256820901e+04 1.315299235556e+05 1.278597764591e+05 1.243062779166e+05 1.208816993180e+05 1.175822865964e+05 1.144025567790e+05 1.113370005396e+05 1.083803948271e+05 1.055278317799e+05 1.027746972036e+05 1.001166439349e+05 9.754956734044e+04 9.506958525017e+04 9.267302239803e+04 9.035639442271e+04 8.811639603343e+04 8.594989048267e+04 8.385389957539e+04 8.182559446750e+04 7.986228988829e+04 7.796143596591e+04 7.612061408352e+04 7.433753129876e+04 7.261001636118e+04 7.093601204193e+04 6.931355835488e+04 6.774073104715e+04 6.621544350939e+04 6.473477129311e+04 6.329271986590e+04 6.186973969807e+04 1.396543996151e+05 1.357394236746e+05 1.319638838192e+05 1.283276839046e+05 1.248248891103e+05 1.214492625506e+05 1.181948661421e+05 1.150561360615e+05 1.120278577905e+05 1.091051325279e+05 1.062833451757e+05 1.035581383247e+05 1.009253910434e+05 9.838120160713e+04 9.592187094530e+04 9.354389068034e+04 9.124393062143e+04 8.901882883574e+04 8.686558314207e+04 8.478134240248e+04 8.276339995977e+04 8.080918856044e+04 7.891627475291e+04 7.708235416070e+04 7.530524718450e+04 7.358288406285e+04 7.191326087021e+04 7.029428922896e+04 6.872328794883e+04 6.719528904926e+04 6.569507736131e+04 1.424240357540e+05 1.384048881895e+05 1.345507553970e+05 1.308423095026e+05 1.272706553085e+05 1.238288274421e+05 1.205106411508e+05 1.173103948095e+05 1.142227666305e+05 1.112427601447e+05 1.083656697782e+05 1.055870527568e+05 1.029027080247e+05 1.003086566145e+05 9.780112767725e+04 9.537654385347e+04 9.303151000065e+04 9.076280217771e+04 8.856735958836e+04 8.644227520758e+04 8.438479001340e+04 8.239228634081e+04 8.046228390215e+04 7.859243544846e+04 7.678052371203e+04 7.502445503538e+04 7.332224247057e+04 7.167194238495e+04 7.007143876941e+04 6.851770950683e+04 6.700335713766e+04 1.397362520399e+05 1.357544317268e+05 1.319676603493e+05 1.283290044427e+05 1.248256293693e+05 1.214498289548e+05 1.181953483651e+05 1.150565544962e+05 1.120282187642e+05 1.091054395079e+05 1.062836002611e+05 1.035583441518e+05 1.009255503540e+05 9.838131691509e+04 9.592194497517e+04 9.354392641744e+04 9.124393092618e+04 8.901879716881e+04 8.686552262447e+04 8.478125695141e+04 8.276329414134e+04 8.080906777416e+04 7.891614590489e+04 7.708222969440e+04 7.530515175355e+04 7.358288347985e+04 7.191355633117e+04 7.029553313151e+04 6.872763431249e+04 6.720986151881e+04 6.574676699246e+04 1.316999841876e+05 1.278909098745e+05 1.243141329242e+05 1.208844485480e+05 1.175838207989e+05 1.144037233952e+05 1.113379885355e+05 1.083812489357e+05 1.055285660445e+05 1.027753194383e+05 1.001171602149e+05 9.754998336147e+04 9.506990745187e+04 9.267325605195e+04 9.035654539006e+04 8.811647059297e+04 8.594989479936e+04 8.385383993326e+04 8.182547865352e+04 7.986212562588e+04 7.796123281818e+04 7.612038360852e+04 7.433728948040e+04 7.260978835564e+04 7.093585061937e+04 6.931360005326e+04 6.774139355055e+04 6.621808069615e+04 6.474385750208e+04 6.332304984837e+04 6.197724470484e+04 1.186330300759e+05 1.151180774069e+05 1.118847734170e+05 1.087949327557e+05 1.058236301449e+05 1.029613536530e+05 1.002021375339e+05 9.754105165634e+04 9.497362655340e+04 9.249569893688e+04 9.010335384119e+04 8.779289636631e+04 8.556083294352e+04 8.340385480916e+04 8.131882554455e+04 7.930277108957e+04 7.735286821485e+04 7.546643697602e+04 7.364093319423e+04 7.187394175216e+04 7.016317041313e+04 6.850644616716e+04 6.690171171749e+04 6.534702674321e+04 6.384058002588e+04 6.238073637153e+04 6.096619423664e+04 5.959650596302e+04 5.827378434811e+04 5.700832650164e+04 5.584549694913e+04 1.010533691334e+05 9.792941700172e+04 9.515829833695e+04 9.252569672735e+04 8.999736704617e+04 8.756264093427e+04 8.521585408377e+04 8.295263118285e+04 8.076910155154e+04 7.866169729023e+04 7.662708109723e+04 7.466210996968e+04 7.276381372107e+04 7.092937978540e+04 6.915614187943e+04 6.744157117587e+04 6.578326738348e+04 6.417895199392e+04 6.262646218820e+04 6.112374364207e+04 5.966884678749e+04 5.825992339852e+04 5.689522551203e+04 5.557311323929e+04 5.429208173396e+04 5.305084260282e+04 5.184858304918e+04 5.068581307860e+04 4.956721454301e+04 4.851128946508e+04 4.759749449730e+04 7.966920930107e+04 7.698975650496e+04 7.477968777024e+04 7.270445265990e+04 7.071534721047e+04 6.880070249676e+04 6.695570183224e+04 6.517679613238e+04 6.346080785512e+04 6.180480900583e+04 6.020609028605e+04 5.866213318128e+04 5.717058057868e+04 5.572921389055e+04 5.433593652826e+04 5.298876069315e+04 5.168579902435e+04 5.042525827658e+04 4.920543508230e+04 4.802471423179e+04 4.688157005262e+04 4.577457090887e+04 4.470238779135e+04 4.366380960911e+04 4.265777106900e+04 4.168343568641e+04 4.074051278810e+04 3.983049537589e+04 3.896128460083e+04 3.816358415661e+04 3.757106506743e+04 5.539113581219e+04 5.310635213732e+04 5.152595472402e+04 5.009419270164e+04 4.872575224532e+04 4.740541955059e+04 4.613106174126e+04 4.490188541386e+04 4.371660205733e+04 4.257348957398e+04 4.147065015523e+04 4.040618479046e+04 3.937827996020e+04 3.838524106825e+04 3.742550133690e+04 3.649761869955e+04 3.560027036030e+04 3.473224414102e+04 3.389243181032e+04 3.307982181728e+04 3.229348362375e+04 3.153254274103e+04 3.079613781202e+04 3.008334996552e+04 2.939312255661e+04 2.872427880613e+04 2.807606177065e+04 2.745067285445e+04 2.686255470025e+04 2.636916439696e+04 2.620776030965e+04 2.999254662338e+04 2.724864358929e+04 2.607195145751e+04 2.529238684903e+04 2.463548223100e+04 2.401974687450e+04 2.342171141961e+04 2.283578317490e+04 2.226169813894e+04 2.170049309581e+04 2.115323879024e+04 2.062069154979e+04 2.010324832630e+04 1.960099370698e+04 1.911375892883e+04 1.864117110182e+04 1.818269049428e+04 1.773763105441e+04 1.730516770442e+04 1.688433693759e+04 1.647403863479e+04 1.607305342547e+04 1.568011365668e+04 1.529411594545e+04 1.491467637540e+04 1.454353879394e+04 1.418811915166e+04 1.387052587402e+04 1.365095320753e+04 1.368957088313e+04 1.447592083198e+04 -2.065799874415e+03 7.659577430687e+02 1.243304242725e+03 1.175249101706e+03 9.839137129723e+02 7.905407679365e+02 6.264562436132e+02 4.956526158370e+02 3.943205679057e+02 3.171059504307e+02 2.590552514204e+02 2.161188690523e+02 1.851765504088e+02 1.639208042149e+02 1.507205707863e+02 1.445004468318e+02 1.446453360807e+02 1.509308708928e+02 1.634716328450e+02 1.826824324416e+02 2.092366439353e+02 2.439983027862e+02 2.878864915227e+02 3.415664634990e+02 4.047433651108e+02 4.745201028811e+02 5.414880924424e+02 5.801645355115e+02 5.248911539241e+02 2.073551960844e+02 -8.662037338817e+02 
        </DataArray>
        <DataArray type="Float64" Name="STRESS_YY" format="ascii">
          -2.853296089863e+05 -2.827005017706e+05 -2.801601712124e+05 -2.777068090829e+05 -2.753381802179e+05 -2.730517994320e+05 -2.708449329465e+05 -2.687147070751e+05 -2.666582010199e+05 -2.646725105434e+05 -2.627547880278e+05 -2.609022674547e+05 -2.591122790436e+05 -2.573822554782e+05 -2.557097339104e+05 -2.540923560869e+05 -2.525278645390e+05 -2.510140975917e+05 -2.495489849102e+05 -2.481305402354e+05 -2.467568533918e+05 -2.454260831818e+05 -2.441364471324e+05 -2.428862104028e+05 -2.416736735569e+05 -2.404971563643e+05 -2.393549763584e+05 -2.382454159686e+05 -2.371666571593e+05 -2.361166219220e+05 -2.350926088484e+05 -2.853297742283e+05 -2.827005366956e+05 -2.801601763841e+05 -2.777068045934e+05 -2.753381715065e+05 -2.730517882508e+05 -2.708449200294e+05 -2.687146929716e+05 -2.666581861100e+05 -2.646724949316e+05 -2.627547718142e+05 -2.609022509847e+05 -2.591122623046e+05 -2.573822383408e+05 -2.557097166051e+05 -2.540923386883e+05 -2.525278467493e+05 -2.510140796772e+05 -2.495489668543e+05 -2.481305217671e+05 -2.467568345985e+05 -2.454260640388e+05 -2.441364274289e+05 -2.428861900940e+05 -2.416736524922e+05 -2.404971342378e+05 -2.393549525516e+05 -2.382453889987e+05 -2.371666232364e+05 -2.361165687126e+05 -2.350924946699e+05 -2.853302843684e+05 -2.827006455502e+05 -2.801601938185e+05 -2.777067922915e+05 -2.753381458527e+05 -2.730517547591e+05 -2.708448813702e+05 -2.687146504980e+05 -2.666581410433e+05 -2.646724478992e+05 -2.627547231716e+05 -2.609022011728e+05 -2.591122114189e+05 -2.573821867642e+05 -2.557096640484e+05 -2.540922855563e+05 -2.525277928151e+05 -2.510140252522e+05 -2.495489112470e+05 -2.481304655939e+05 -2.467567772269e+05 -2.454260056216e+05 -2.441363671536e+05 -2.428861283733e+05 -2.416735880820e+05 -2.404970664364e+05 -2.393548793946e+05 -2.382453067334e+05 -2.371665188294e+05 -2.361164048702e+05 -2.350921433019e+05 -2.853311852163e+05 -2.827008411696e+05 -2.801602284871e+05 -2.777067753251e+05 -2.753381046317e+05 -2.730516995530e+05 -2.708448169559e+05 -2.687145796738e+05 -2.666580649645e+05 -2.646723682481e+05 -2.627546409894e+05 -2.609021164212e+05 -2.591121248244e+05 -2.573820984731e+05 -2.557095747591e+05 -2.540921943123e+05 -2.525277006736e+05 -2.510139313135e+05 -2.495488163493e+05 -2.481303683960e+05 -2.467566786367e+05 -2.454259042895e+05 -2.441362636088e+05 -2.428860207152e+05 -2.416734764114e+05 -2.404969485463e+05 -2.393547526186e+05 -2.382451626431e+05 -2.371663369685e+05 -2.361161181504e+05 -2.350915266853e+05 -2.853325620217e+05 -2.827011474995e+05 -2.801602906450e+05 -2.777067574139e+05 -2.753380510239e+05 -2.730516242514e+05 -2.708447270266e+05 -2.687144792453e+05 -2.666579573348e+05 -2.646722545699e+05 -2.627545227661e+05 -2.609019947877e+05 -2.591120000354e+05 -2.573819710275e+05 -2.557094447338e+05 -2.540920622692e+05 -2.525275660717e+05 -2.510137947522e+05 -2.495486769497e+05 -2.481302265184e+05 -2.467565334913e+05 -2.454257556729e+05 -2.441361103264e+05 -2.428858623266e+05 -2.416733109786e+05 -2.404967736138e+05 -2.393545634804e+05 -2.382449478761e+05 -2.371660639306e+05 -2.361156860503e+05 -2.350905939756e+05 -2.853345548754e+05 -2.827016028596e+05 -2.801603948684e+05 -2.777067475347e+05 -2.753379883085e+05 -2.730515306370e+05 -2.708446122225e+05 -2.687143494266e+05 -2.666578160289e+05 -2.646721049219e+05 -2.627543660941e+05 -2.609018326047e+05 -2.591118333549e+05 -2.573818002684e+05 -2.557092701146e+05 -2.540918843838e+05 -2.525273846916e+05 -2.510136096835e+05 -2.495484881650e+05 -2.481300338934e+05 -2.467563358038e+05 -2.454255527723e+05 -2.441359007175e+05 -2.428856449198e+05 -2.416730829314e+05 -2.404965322581e+05 -2.393543010969e+05 -2.382446489058e+05 -2.371656806258e+05 -2.361150748225e+05 -2.350892631703e+05 -2.853373881234e+05 -2.827022672606e+05 -2.801605649801e+05 -2.777067561486e+05 -2.753379227459e+05 -2.730514207951e+05 -2.708444726538e+05 -2.687141880827e+05 -2.666576387111e+05 -2.646719155769e+05 -2.627541671418e+05 -2.609016255795e+05 -2.591116199533e+05 -2.573815810815e+05 -2.557090455656e+05 -2.540916548002e+05 -2.525271504460e+05 -2.510133700241e+05 -2.495482434396e+05 -2.481297829706e+05 -2.467560785451e+05 -2.454252873955e+05 -2.441356265435e+05 -2.428853587928e+05 -2.416727828433e+05 -2.404962120697e+05 -2.393539522613e+05 -2.382442470609e+05 -2.371651612624e+05 -2.361142331862e+05 -2.350874066832e+05 -2.853414235860e+05 -2.827032347529e+05 -2.801608346473e+05 -2.777067983922e+05 -2.753378608495e+05 -2.730512969105e+05 -2.708443068222e+05 -2.687139921672e+05 -2.666574209008e+05 -2.646716807671e+05 -2.627539192777e+05 -2.609013672755e+05 -2.591113529081e+05 -2.573813062350e+05 -2.557087640693e+05 -2.540913666040e+05 -2.525268556402e+05 -2.510130690037e+05 -2.495479350761e+05 -2.481294666944e+05 -2.467557533445e+05 -2.454249517699e+05 -2.441352774964e+05 -2.428849943877e+05 -2.416723980882e+05 -2.404958001635e+05 -2.393534990925e+05 -2.382437207983e+05 -2.371644681625e+05 -2.361130859419e+05 -2.350848228178e+05 -2.853472649970e+05 -2.827046551223e+05 -2.801612543804e+05 -2.777068941070e+05 -2.753378083726e+05 -2.730511570760e+05 -2.708441084937e+05 -2.687137532429e+05 -2.666571516521e+05 -2.646713893417e+05 -2.627536110714e+05 -2.609010461586e+05 -2.591110203553e+05 -2.573809648244e+05 -2.557084144868e+05 -2.540910094512e+05 -2.525264906004e+05 -2.510126962621e+05 -2.495475537018e+05 -2.481290757045e+05 -2.467553506624e+05 -2.454245355323e+05 -2.441348446470e+05 -2.428845399454e+05 -2.416719156963e+05 -2.404952802380e+05 -2.393529214799e+05 -2.382430381834e+05 -2.371635481689e+05 -2.361115142651e+05 -2.350811797498e+05 -2.853559742711e+05 -2.827067810670e+05 -2.801619019370e+05 -2.777070656260e+05 -2.753377660405e+05 -2.730509903435e+05 -2.708438598161e+05 -2.687134481197e+05 -2.666568074505e+05 -2.646710160323e+05 -2.627532173548e+05 -2.609006370724e+05 -2.591105999008e+05 -2.573805347354e+05 -2.557079767730e+05 -2.540905643498e+05 -2.525260386512e+05 -2.510122361210e+05 -2.495470851097e+05 -2.481285964372e+05 -2.467548582624e+05 -2.454240260146e+05 -2.441343139151e+05 -2.428839806117e+05 -2.416713186201e+05 -2.404946300616e+05 -2.393521893036e+05 -2.382421539377e+05 -2.371623153753e+05 -2.361093171825e+05 -2.350758960494e+05 -2.853695660671e+05 -2.827100660033e+05 -2.801629022942e+05 -2.777073393978e+05 -2.753377163235e+05 -2.730507571603e+05 -2.708435095165e+05 -2.687130201332e+05 -2.666563271822e+05 -2.646705015175e+05 -2.627526797571e+05 -2.609000850467e+05 -2.591100385437e+05 -2.573799678499e+05 -2.557074059161e+05 -2.540899910603e+05 -2.525254622266e+05 -2.510116560223e+05 -2.495464988787e+05 -2.481280015403e+05 -2.467542501498e+05 -2.454233996400e+05 -2.441336609451e+05 -2.428832912253e+05 -2.416705773197e+05 -2.404938128321e+05 -2.393512501601e+05 -2.382409859905e+05 -2.371606139152e+05 -2.361061231866e+05 -2.350678625909e+05 -2.853922772416e+05 -2.827154069363e+05 -2.801644754043e+05 -2.777077346790e+05 -2.753375926659e+05 -2.730503449400e+05 -2.708429213057e+05 -2.687123217483e+05 -2.666555614618e+05 -2.646696966557e+05 -2.627518547852e+05 -2.608992527827e+05 -2.591092080904e+05 -2.573791441423e+05 -2.557065922651e+05 -2.540891881587e+05 -2.525246700063e+05 -2.510108723196e+05 -2.495457202641e+05 -2.481272226145e+05 -2.467534645351e+05 -2.454225970031e+05 -2.441328282459e+05 -2.428824104675e+05 -2.416696222802e+05 -2.404927412882e+05 -2.393499874568e+05 -2.382393584707e+05 -2.371581234645e+05 -2.361011583882e+05 -2.350547245498e+05 -2.854344129755e+05 -2.827248614995e+05 -2.801670328988e+05 -2.777082379496e+05 -2.753371992108e+05 -2.730494479340e+05 -2.708417238173e+05 -2.687109509290e+05 -2.666541003824e+05 -2.646682000586e+05 -2.627503570803e+05 -2.608977757957e+05 -2.591077658603e+05 -2.573777451402e+05 -2.557052404209e+05 -2.540878848088e+05 -2.525234135400e+05 -2.510096592000e+05 -2.495445436549e+05 -2.481260727458e+05 -2.467523274157e+05 -2.454214529385e+05 -2.441316490481e+05 -2.428811579983e+05 -2.416682449578e+05 -2.404911673800e+05 -2.393480949164e+05 -2.382368561744e+05 -2.371541020732e+05 -2.360925485275e+05 -2.350307212677e+05 -2.855264980051e+05 -2.827448165105e+05 -2.801714080166e+05 -2.777084215002e+05 -2.753357905473e+05 -2.730471546080e+05 -2.708388671585e+05 -2.687077554063e+05 -2.666507367384e+05 -2.646647923878e+05 -2.627469919610e+05 -2.608945099719e+05 -2.591046336577e+05 -2.573747657475e+05 -2.557024228297e+05 -2.540852294767e+05 -2.525209137713e+05 -2.510073018084e+05 -2.495423082716e+05 -2.481239297065e+05 -2.467502372457e+05 -2.454193658414e+05 -2.441295064142e+05 -2.428788951050e+05 -2.416657934039e+05 -2.404884404910e+05 -2.393448991087e+05 -2.382325493713e+05 -2.371464763951e+05 -2.360744462063e+05 -2.349789754978e+05 -2.857748980357e+05 -2.828078323380e+05 -2.801848828715e+05 -2.777068239913e+05 -2.753292207107e+05 -2.730386746527e+05 -2.708295036963e+05 -2.686979432861e+05 -2.666407285710e+05 -2.646547700680e+05 -2.627370941943e+05 -2.608848414631e+05 -2.590952716635e+05 -2.573657639717e+05 -2.556938140037e+05 -2.540770312454e+05 -2.525131317706e+05 -2.509999297344e+05 -2.495353321757e+05 -2.481173304666e+05 -2.467439898965e+05 -2.454134419738e+05 -2.441238701764e+05 -2.428734833369e+05 -2.416604581370e+05 -2.404827831326e+05 -2.393378316575e+05 -2.382211780900e+05 -2.371232898741e+05 -2.360202613909e+05 -2.348421855715e+05 -2.868309476528e+05 -2.832135738198e+05 -2.803366327946e+05 -2.777443303765e+05 -2.753111221319e+05 -2.729917242773e+05 -2.707668920741e+05 -2.686266535498e+05 -2.665646972516e+05 -2.645763345840e+05 -2.626576959262e+05 -2.608053877397e+05 -2.590163316730e+05 -2.572876819730e+05 -2.556167780819e+05 -2.540011125443e+05 -2.524383080276e+05 -2.509260991508e+05 -2.494623115640e+05 -2.480448393516e+05 -2.466716159860e+05 -2.453405677088e+05 -2.440495295395e+05 -2.427960919512e+05 -2.415772951015e+05 -2.403889794077e+05 -2.392243562192e+05 -2.380707140541e+05 -2.369014866789e+05 -2.356564474738e+05 -2.341773084478e+05 -2.790991354212e+05 -2.791294967165e+05 -2.783642839830e+05 -2.769896053393e+05 -2.752969257147e+05 -2.734415754428e+05 -2.715112993356e+05 -2.695577889397e+05 -2.676123136424e+05 -2.656940159855e+05 -2.638145930711e+05 -2.619810634284e+05 -2.601974692543e+05 -2.584659622578e+05 -2.567875203227e+05 -2.551624349455e+05 -2.535906571881e+05 -2.520720614771e+05 -2.506066840486e+05 -2.491949403497e+05 -2.478378699679e+05 -2.465374670820e+05 -2.452971373302e+05 -2.441223917684e+05 -2.430220237783e+05 -2.420101815799e+05 -2.411102907286e+05 -2.403629867254e+05 -2.398431326447e+05 -2.396983480424e+05 -2.401833409296e+05 
        </DataArray>
        <DataArray type="Float64" Name="STRESS_ZZ" format="ascii">
          -2.858720971806e+05 -2.832224343440e+05 -2.806687597159e+05 -2.782030183092e+05 -2.758221519688e+05 -2.735236291500e+05 -2.713047885302e+05 -2.691628237318e+05 -2.670948596995e+05 -2.650980196513e+05 -2.631694704334e+05 -2.613064517838e+05 -2.595062939282e+05 -2.577664260809e+05 -2.560843798440e+05 -2.544577903933e+05 -2.528843934677e+05 -2.513620211263e+05 -2.498885975700e+05 -2.484621326885e+05 -2.470807145157e+05 -2.457425026937e+05 -2.444457190037e+05 -2.431886369068e+05 -2.419695694060e+05 -2.407868508703e+05 -2.396388051559e+05 -2.385236741093e+05 -2.374394187246e+05 -2.363831147027e+05 -2.353486652172e+05 -2.831395413460e+05 -2.805637843901e+05 -2.780835947298e+05 -2.756889821396e+05 -2.733767126947e+05 -2.711443138790e+05 -2.689892266758e+05 -2.669087507603e+05 -2.649001124065e+05 -2.629605302248e+05 -2.610872615436e+05 -2.592776317351e+05 -2.575290513473e+05 -2.558390258729e+05 -2.542051598610e+05 -2.526251570028e+05 -2.510968178720e+05 -2.496180370158e+05 -2.481867973495e+05 -2.468011641833e+05 -2.454592790189e+05 -2.441593517560e+05 -2.428996516264e+05 -2.416784975778e+05 -2.404942457675e+05 -2.393452725625e+05 -2.382299464630e+05 -2.371465682301e+05 -2.360932120208e+05 -2.350672505330e+05 -2.340636833345e+05 -2.750469012101e+05 -2.726900128747e+05 -2.704274514957e+05 -2.682434904794e+05 -2.661343741446e+05 -2.640978051459e+05 -2.621315280884e+05 -2.602331551788e+05 -2.584002132624e+05 -2.566302044864e+05 -2.549206531398e+05 -2.532691373830e+05 -2.516733069087e+05 -2.501308937489e+05 -2.486397160883e+05 -2.471976821898e+05 -2.458027853318e+05 -2.444531036975e+05 -2.431467935278e+05 -2.418820871672e+05 -2.406572815585e+05 -2.394707365560e+05 -2.383208618732e+05 -2.372061116848e+05 -2.361249684449e+05 -2.350759342503e+05 -2.340575090824e+05 -2.330681691316e+05 -2.321063216158e+05 -2.311702204246e+05 -2.302581113072e+05 -2.619052247779e+05 -2.599037284039e+05 -2.579945659732e+05 -2.561526798598e+05 -2.543734622119e+05 -2.526549010964e+05 -2.509952326598e+05 -2.493925779150e+05 -2.478449500086e+05 -2.463503120561e+05 -2.449066227537e+05 -2.435118695782e+05 -2.421640909152e+05 -2.408613859700e+05 -2.396019223056e+05 -2.383839366879e+05 -2.372057382104e+05 -2.360657013408e+05 -2.349622667296e+05 -2.338939330392e+05 -2.328592548466e+05 -2.318568316311e+05 -2.308853043602e+05 -2.299433428274e+05 -2.290296391630e+05 -2.281428961158e+05 -2.272818292344e+05 -2.264451966365e+05 -2.256319498080e+05 -2.248417688979e+05 -2.240781719504e+05 -2.442196322553e+05 -2.426963423676e+05 -2.412627526430e+05 -2.398812088843e+05 -2.385459537191e+05 -2.372553532165e+05 -2.360083060510e+05 -2.348036172458e+05 -2.336399556475e+05 -2.325159020906e+05 -2.314300008603e+05 -2.303807910582e+05 -2.293668327104e+05 -2.283867199925e+05 -2.274390890671e+05 -2.265226218959e+05 -2.256360488635e+05 -2.247781464745e+05 -2.239477346032e+05 -2.231436747238e+05 -2.223648634309e+05 -2.216102264445e+05 -2.208787126991e+05 -2.201692856860e+05 -2.194809158062e+05 -2.188125784605e+05 -2.181632774850e+05 -2.175321518230e+05 -2.169188817184e+05 -2.163250661731e+05 -2.157613161821e+05 -2.226699136971e+05 -2.217291856917e+05 -2.208750402931e+05 -2.200544050924e+05 -2.192601048065e+05 -2.184909661633e+05 -2.177466923180e+05 -2.170269211905e+05 -2.163311184454e+05 -2.156586207729e+05 -2.150086826087e+05 -2.143805158343e+05 -2.137733171474e+05 -2.131862828741e+05 -2.126186195978e+05 -2.120695525899e+05 -2.115383256859e+05 -2.110242034411e+05 -2.105264701615e+05 -2.100444280550e+05 -2.095773899695e+05 -2.091246802222e+05 -2.086856225427e+05 -2.082595377587e+05 -2.078457351864e+05 -2.074435236325e+05 -2.070522555593e+05 -2.066715350367e+05 -2.063019260832e+05 -2.059473631728e+05 -2.056270939849e+05 -1.980844266799e+05 -1.978081000968e+05 -1.976149660027e+05 -1.974342298977e+05 -1.972570777970e+05 -1.970828545673e+05 -1.969121791139e+05 -1.967456372046e+05 -1.965836052770e+05 -1.964262788043e+05 -1.962737234466e+05 -1.961259184555e+05 -1.959827863599e+05 -1.958442095177e+05 -1.957100471029e+05 -1.955801421872e+05 -1.954543254213e+05 -1.953324178043e+05 -1.952142340580e+05 -1.950995767583e+05 -1.949882378497e+05 -1.948799918066e+05 -1.947745929739e+05 -1.946717673991e+05 -1.945712140593e+05 -1.944726164756e+05 -1.943757300570e+05 -1.942806826392e+05 -1.941890470173e+05 -1.941074084585e+05 -1.940648662189e+05 -1.714083016044e+05 -1.718524835653e+05 -1.723764661014e+05 -1.728900025872e+05 -1.733824581663e+05 -1.738537306953e+05 -1.743054283116e+05 -1.747391625023e+05 -1.751562963106e+05 -1.755579564698e+05 -1.759450883169e+05 -1.763185027545e+05 -1.766789091329e+05 -1.770269351493e+05 -1.773631471734e+05 -1.776880578222e+05 -1.780021348661e+05 -1.783058047576e+05 -1.785994537294e+05 -1.788834309458e+05 -1.791580455776e+05 -1.794235622997e+05 -1.796801997025e+05 -1.799281271497e+05 -1.801674615751e+05 -1.803982972912e+05 -1.806208201563e+05 -1.808357282646e+05 -1.810456783254e+05 -1.812601189889e+05 -1.815188242026e+05 -1.436672036411e+05 -1.448599866034e+05 -1.461295385646e+05 -1.473649974562e+05 -1.485537628639e+05 -1.496962889933e+05 -1.507952051783e+05 -1.518531882829e+05 -1.528726212950e+05 -1.538555988549e+05 -1.548039807716e+05 -1.557194420210e+05 -1.566035068816e+05 -1.574575810970e+05 -1.582829645293e+05 -1.590808665437e+05 -1.598524164047e+05 -1.605986700624e+05 -1.613206096726e+05 -1.620191510217e+05 -1.626951401815e+05 -1.633493531711e+05 -1.639824916548e+05 -1.645951814640e+05 -1.651879769428e+05 -1.657613978513e+05 -1.663160750580e+05 -1.668532928305e+05 -1.673768269987e+05 -1.678990722714e+05 -1.684708846987e+05 -1.159280930665e+05 -1.178682364520e+05 -1.198829977485e+05 -1.218402113732e+05 -1.237251893999e+05 -1.255389046590e+05 -1.272849958636e+05 -1.289671981853e+05 -1.305889117649e+05 -1.321531930758e+05 -1.336628169349e+05 -1.351203183185e+05 -1.365280398529e+05 -1.378881598595e+05 -1.392027130614e+05 -1.404736053017e+05 -1.417026281129e+05 -1.428914629491e+05 -1.440416914586e+05 -1.451547938658e+05 -1.462321534006e+05 -1.472750554125e+05 -1.482846858208e+05 -1.492621254251e+05 -1.502083649755e+05 -1.511243457522e+05 -1.520111420414e+05 -1.528706147633e+05 -1.537076359500e+05 -1.545374933454e+05 -1.554220920761e+05 -8.925863052144e+04 -9.191510184378e+04 -9.464577493598e+04 -9.729670756916e+04 -9.985096565655e+04 -1.023099632961e+05 -1.046782840487e+05 -1.069606667465e+05 -1.091614812292e+05 -1.112847076284e+05 -1.133339907138e+05 -1.153126942707e+05 -1.172239435872e+05 -1.190706597541e+05 -1.208555821893e+05 -1.225812878314e+05 -1.242502006840e+05 -1.258646077316e+05 -1.274266624694e+05 -1.289383893864e+05 -1.304016868410e+05 -1.318183310661e+05 -1.331899682908e+05 -1.345181189731e+05 -1.358041885214e+05 -1.370495202671e+05 -1.382556078894e+05 -1.394248541702e+05 -1.405631390891e+05 -1.416884259707e+05 -1.428731828347e+05 -6.468720558104e+04 -6.799917016582e+04 -7.138831392463e+04 -7.467799439279e+04 -7.784872546106e+04 -8.090220251323e+04 -8.384383097002e+04 -8.667924700465e+04 -8.941370080354e+04 -9.205201152763e+04 -9.459862148267e+04 -9.705765113337e+04 -9.943294514209e+04 -1.017281056560e+05 -1.039465205321e+05 -1.060913807550e+05 -1.081656970901e+05 -1.101723103460e+05 -1.121139006081e+05 -1.139929928156e+05 -1.158119607231e+05 -1.175730254420e+05 -1.192782582376e+05 -1.209295808510e+05 -1.225287773634e+05 -1.240775569552e+05 -1.255777936340e+05 -1.270323506733e+05 -1.284479341914e+05 -1.298447373442e+05 -1.313048810134e+05 -4.316662880527e+04 -4.704249838380e+04 -5.100572842829e+04 -5.485396635658e+04 -5.856431300866e+04 -6.213841006747e+04 -6.558226009267e+04 -6.890222171972e+04 -7.210428280373e+04 -7.519398067093e+04 -7.817644297945e+04 -8.105644554221e+04 -8.383845676413e+04 -8.652667187816e+04 -8.912504185722e+04 -9.163729416403e+04 -9.406694805334e+04 -9.641732873542e+04 -9.869157347328e+04 -1.008926410548e+05 -1.030233163862e+05 -1.050862105434e+05 -1.070837638798e+05 -1.090182524496e+05 -1.108917985496e+05 -1.127064298272e+05 -1.144643060740e+05 -1.161685595866e+05 -1.178263268312e+05 -1.194593092056e+05 -1.211580620429e+05 -2.554847586311e+04 -2.986020465522e+04 -3.428560185413e+04 -3.858816034815e+04 -4.273920155857e+04 -4.673939900946e+04 -5.059480260779e+04 -5.431210698695e+04 -5.789775639325e+04 -6.135779972468e+04 -6.469789647029e+04 -6.792334595178e+04 -7.103911939761e+04 -7.404989265225e+04 -7.696007376887e+04 -7.977382097354e+04 -8.249506337914e+04 -8.512751771925e+04 -8.767469579261e+04 -9.013991640616e+04 -9.252631441059e+04 -9.483683945147e+04 -9.707425561343e+04 -9.924113044248e+04 -1.013398131466e+05 -1.033724390690e+05 -1.053410925344e+05 -1.072486470059e+05 -1.091020898203e+05 -1.109241890843e+05 -1.128123642290e+05 -1.257963883556e+04 -1.715695324495e+04 -2.189974430560e+04 -2.652265148918e+04 -3.098906889938e+04 -3.529799506372e+04 -3.945463947530e+04 -4.346497505924e+04 -4.733490819732e+04 -5.107019619163e+04 -5.467643453521e+04 -5.815903798794e+04 -6.152321973874e+04 -6.477397204247e+04 -6.791605567518e+04 -7.095400061106e+04 -7.389210429130e+04 -7.673442821685e+04 -7.948480033032e+04 -8.214680678742e+04 -8.472377137688e+04 -8.721873239789e+04 -8.963440222569e+04 -9.197311614571e+04 -9.423680179993e+04 -9.642703826195e+04 -9.854544146669e+04 -1.005950489413e+05 -1.025845644205e+05 -1.045406450576e+05 -1.065607590440e+05 -4.542601327235e+03 -9.550280422664e+03 -1.456152524231e+04 -1.938336918106e+04 -2.401323115110e+04 -2.846847097425e+04 -3.276424252806e+04 -3.691151180215e+04 -4.091830134017e+04 -4.479089126577e+04 -4.853457673618e+04 -5.215409250894e+04 -5.565383205011e+04 -5.903795540199e+04 -6.231043618392e+04 -6.547507445855e+04 -6.853549793183e+04 -7.149516082444e+04 -7.435733862844e+04 -7.712513334054e+04 -7.980149734883e+04 -8.238928423312e+04 -8.489134443165e+04 -8.731071727118e+04 -8.965099185778e+04 -9.191697355989e+04 -9.411595019244e+04 -9.626012261144e+04 -9.837130801607e+04 -1.004901796820e+05 -1.027051715269e+05 -5.784699275904e+03 -4.325462979880e+03 -8.658764159643e+03 -1.397259300127e+04 -1.932883772767e+04 -2.447440832384e+04 -2.935745096903e+04 -3.398508248290e+04 -3.837967237258e+04 -4.256524424138e+04 -4.656354860795e+04 -5.039328825241e+04 -5.407034493461e+04 -5.760827139242e+04 -6.101880335404e+04 -6.431231024868e+04 -6.749816497906e+04 -7.058504286365e+04 -7.358118481758e+04 -7.649457035626e+04 -7.933301760000e+04 -8.210419460093e+04 -8.481540052713e+04 -8.747288133164e+04 -9.008019959401e+04 -9.263433479695e+04 -9.511638983454e+04 -9.746896720379e+04 -9.953940007302e+04 -1.009330524165e+05 -1.003549356792e+05 
        </DataArray>
        <DataArray type="Float64" Name="STRAIN_XX" format="ascii">
          1.591043126957e-06 1.533259332987e-06 1.477775736591e-06 1.424395803483e-06 1.372997996199e-06 1.323479274313e-06 1.275747240556e-06 1.229717239291e-06 1.185310851024e-06 1.142454926495e-06 1.101080904113e-06 1.061124290680e-06 1.022524252430e-06 9.852233011849e-07 9.491670314005e-07 9.143038899518e-07 8.805849964311e-07 8.479639888227e-07 8.163968728771e-07 7.858419157383e-07 7.562595534862e-07 7.276123020895e-07 6.998647090004e-07 6.729833190720e-07 6.469366525392e-07 6.216952040643e-07 5.972314055013e-07 5.735193983676e-07 5.505340998131e-07 5.282478244020e-07 5.066123496628e-07 1.561528725758e-06 1.504545092091e-06 1.449855612702e-06 1.397244036812e-06 1.346587151985e-06 1.297782614290e-06 1.250739148584e-06 1.205373247623e-06 1.161607589555e-06 1.119370060861e-06 1.078593077245e-06 1.039213065462e-06 1.001170066412e-06 9.644074180491e-07 9.288714954276e-07 8.945114885344e-07 8.612792246181e-07 8.291290052177e-07 7.980174758857e-07 7.679035073724e-07 7.387481060125e-07 7.105143327907e-07 6.831672513337e-07 6.566738943851e-07 6.310032502232e-07 6.061262697953e-07 5.820158719896e-07 5.586468473115e-07 5.359953660279e-07 5.140370710130e-07 4.927359787649e-07 1.474119575341e-06 1.419505810871e-06 1.367168189257e-06 1.316832161414e-06 1.268369571357e-06 1.221680138952e-06 1.176675915364e-06 1.133276793052e-06 1.091408698617e-06 1.051002592600e-06 1.011993779317e-06 9.743214139584e-07 9.379281271130e-07 9.027596975649e-07 8.687648211100e-07 8.358948831722e-07 8.041038048369e-07 7.733478601068e-07 7.435855865281e-07 7.147776325448e-07 6.868867082755e-07 6.598774784319e-07 6.337165431024e-07 6.083723707649e-07 5.838153465456e-07 5.600177670618e-07 5.369539922573e-07 5.146007290026e-07 4.929378835971e-07 4.719509465093e-07 4.516402269994e-07 1.332174224090e-06 1.281409396774e-06 1.232891078354e-06 1.186250345791e-06 1.141351101999e-06 1.098096411499e-06 1.056403727126e-06 1.016198472551e-06 9.774118586222e-07 9.399798136682e-07 9.038423465184e-07 8.689430545714e-07 8.352287509342e-07 8.026491915078e-07 7.711568342701e-07 7.407066455686e-07 7.112559168876e-07 6.827641612779e-07 6.551929529899e-07 6.285058603523e-07 6.026683307608e-07 5.776476620359e-07 5.534129140225e-07 5.299349323195e-07 5.071863256679e-07 4.851416017682e-07 4.637774504436e-07 4.430737140271e-07 4.230163354410e-07 4.036068705582e-07 3.849047065838e-07 1.141146539245e-06 1.095562600902e-06 1.052184407122e-06 1.010516753685e-06 9.704129531375e-07 9.317806390731e-07 8.945445325593e-07 8.586374980020e-07 8.239978434162e-07 7.905682113262e-07 7.582949278191e-07 7.271275552241e-07 6.970185579505e-07 6.679230325840e-07 6.397985063593e-07 6.126047439458e-07 5.863036087674e-07 5.608589329261e-07 5.362364158007e-07 5.124035191034e-07 4.893294069679e-07 4.669848887319e-07 4.453423699075e-07 4.243758525240e-07 4.040609795555e-07 3.843752102524e-07 3.652983817463e-07 3.468145463817e-07 3.289178179236e-07 3.116314283954e-07 2.950946352596e-07 9.083759079058e-07 8.691070157620e-07 8.319924975973e-07 7.963846300041e-07 7.621241114752e-07 7.291241642549e-07 6.973184056538e-07 6.666487582519e-07 6.370621871510e-07 6.085095054862e-07 5.809447454171e-07 5.543247313081e-07 5.286088135656e-07 5.037586037367e-07 4.797377934377e-07 4.565120074268e-07 4.340486706844e-07 4.123168853572e-07 3.912873632156e-07 3.709323276448e-07 3.512254601188e-07 3.321418530973e-07 3.136579865371e-07 2.957517129136e-07 2.784023690652e-07 2.615910065596e-07 2.453013128149e-07 2.295224668738e-07 2.142585935322e-07 1.995594766790e-07 1.856623916894e-07 6.428048397404e-07 6.107445143705e-07 5.807769288522e-07 5.520827827981e-07 5.244888405580e-07 4.979148258533e-07 4.723045013571e-07 4.476101475424e-07 4.237886065546e-07 4.008000029885e-07 3.786071607151e-07 3.571752091103e-07 3.364713340788e-07 3.164645782551e-07 2.971256843179e-07 2.784269508266e-07 2.603421392644e-07 2.428463835786e-07 2.259161016689e-07 2.095289503148e-07 1.936637650109e-07 1.783005325072e-07 1.634203608658e-07 1.490055276981e-07 1.350395528124e-07 1.215076106360e-07 1.083977659975e-07 9.570509612023e-08 8.344517399160e-08 7.169839109580e-08 6.081505364310e-08 3.546346895520e-07 3.304026865215e-07 3.081913132083e-07 2.869993028572e-07 2.666390866147e-07 2.470376422735e-07 2.281497855360e-07 2.099390228669e-07 1.923729219742e-07 1.754217301846e-07 1.590577903779e-07 1.432552402257e-07 1.279897811683e-07 1.132385202786e-07 9.897983321664e-08 8.519327336481e-08 7.185947974459e-08 5.896011872805e-08 4.647781062325e-08 3.439610373930e-08 2.269942798363e-08 1.137307362468e-08 4.031918029761e-10 -1.022317454569e-08 -2.051793355984e-08 -3.049144779016e-08 -4.015088890566e-08 -4.949477160780e-08 -5.849492902000e-08 -6.703733667946e-08 -7.464689966134e-08 5.493250570600e-08 3.885309264507e-08 2.471022785335e-08 1.132072781001e-08 -1.516487749179e-09 -1.386661910456e-08 -2.576328568050e-08 -3.723127771670e-08 -4.829186428598e-08 -5.896430357520e-08 -6.926632173536e-08 -7.921441933837e-08 -8.882404628206e-08 -9.810971535042e-08 -1.070850918563e-07 -1.157630966241e-07 -1.241559286124e-07 -1.322751336759e-07 -1.401316337571e-07 -1.477357606776e-07 -1.550972646457e-07 -1.622253379380e-07 -1.691285892226e-07 -1.758150089807e-07 -1.822917582723e-07 -1.885645540502e-07 -1.946355953278e-07 -2.004966729686e-07 -2.061063333205e-07 -2.113147593052e-07 -2.155133719047e-07 -2.447964888026e-07 -2.527031497048e-07 -2.587734340374e-07 -2.643594208158e-07 -2.696733110809e-07 -2.747719624687e-07 -2.796773047390e-07 -2.844023915800e-07 -2.889573512172e-07 -2.933509077539e-07 -2.975908810325e-07 -3.016844109460e-07 -3.056380894303e-07 -3.094580409685e-07 -3.131500008613e-07 -3.167193332700e-07 -3.201710918395e-07 -3.235100299849e-07 -3.267406177741e-07 -3.298670525882e-07 -3.328932796411e-07 -3.358229607783e-07 -3.386594739898e-07 -3.414058327270e-07 -3.440644564485e-07 -3.466364052906e-07 -3.491188843883e-07 -3.514968535157e-07 -3.537152285952e-07 -3.555870131542e-07 -3.563634942709e-07 -5.330559690508e-07 -5.330667092001e-07 -5.313672804992e-07 -5.294478322621e-07 -5.275269019784e-07 -5.256524133704e-07 -5.238348498992e-07 -5.220759356686e-07 -5.203750554803e-07 -5.187308130977e-07 -5.171414966249e-07 -5.156052458514e-07 -5.141201300056e-07 -5.126842270329e-07 -5.112956175948e-07 -5.099524191156e-07 -5.086528107820e-07 -5.073950107171e-07 -5.061772758732e-07 -5.049979254135e-07 -5.038553018967e-07 -5.027477573265e-07 -5.016736346252e-07 -5.006311729840e-07 -4.996182097310e-07 -4.986313229584e-07 -4.976628494383e-07 -4.966910166327e-07 -4.956470290269e-07 -4.943056768516e-07 -4.917708315600e-07 -7.988127751417e-07 -7.914724287919e-07 -7.825984916997e-07 -7.737587201629e-07 -7.651689571926e-07 -7.568673004248e-07 -7.488533874398e-07 -7.411183953074e-07 -7.336517542485e-07 -7.264427141153e-07 -7.194807665377e-07 -7.127557558876e-07 -7.062579093953e-07 -6.999778680886e-07 -6.939066788616e-07 -6.880357764706e-07 -6.823569895893e-07 -6.768625148415e-07 -6.715448983312e-07 -6.663970167931e-07 -6.614120612687e-07 -6.565835019579e-07 -6.519050397391e-07 -6.473704858989e-07 -6.429734384705e-07 -6.387062540879e-07 -6.345566804304e-07 -6.304965449700e-07 -6.264434789587e-07 -6.221320656770e-07 -6.165039329679e-07 -1.031959326047e-06 -1.018008178639e-06 -1.002816982749e-06 -9.879062882411e-07 -9.734693353131e-07 -9.595325628898e-07 -9.460861077495e-07 -9.331120260922e-07 -9.205909417545e-07 -9.085037779230e-07 -8.968322051678e-07 -8.855587294808e-07 -8.746666823304e-07 -8.641401884416e-07 -8.539641251130e-07 -8.441240854094e-07 -8.346063516182e-07 -8.253978542145e-07 -8.164861388912e-07 -8.078593396262e-07 -7.995061219579e-07 -7.914156287570e-07 -7.835774047365e-07 -7.759812447163e-07 -7.686168625071e-07 -7.614728848144e-07 -7.545332878179e-07 -7.477645815382e-07 -7.410705411105e-07 -7.341370150593e-07 -7.257026927767e-07 -1.223862884522e-06 -1.204017795586e-06 -1.183558129322e-06 -1.163661031437e-06 -1.144430714497e-06 -1.125870088906e-06 -1.107962083580e-06 -1.090683830588e-06 -1.074010378734e-06 -1.057916424355e-06 -1.042377234989e-06 -1.027369080400e-06 -1.012869395820e-06 -9.988567875903e-07 -9.853109702646e-07 -9.722126956332e-07 -9.595436599772e-07 -9.472864192094e-07 -9.354243135764e-07 -9.239413888577e-07 -9.128223325985e-07 -9.020524481913e-07 -8.916176764391e-07 -8.815046755338e-07 -8.717008462057e-07 -8.621935848539e-07 -8.529660314160e-07 -8.439798581736e-07 -8.351143594671e-07 -8.259656683628e-07 -8.149675244357e-07 -1.368600592042e-06 -1.342693307432e-06 -1.317807827588e-06 -1.294121506183e-06 -1.271379747226e-06 -1.249450765550e-06 -1.228274525676e-06 -1.207819392458e-06 -1.188062041253e-06 -1.168980153239e-06 -1.150550504115e-06 -1.132748948129e-06 -1.115550912664e-06 -1.098931916988e-06 -1.082867972597e-06 -1.067335863487e-06 -1.052313335163e-06 -1.037779247754e-06 -1.023713701710e-06 -1.010098179080e-06 -9.969157369395e-07 -9.841512181118e-07 -9.717914232880e-07 -9.598250128784e-07 -9.482414088771e-07 -9.370267407210e-07 -9.261515925724e-07 -9.155364752256e-07 -9.049572675691e-07 -8.937885214838e-07 -8.800573978625e-07 -1.464405545503e-06 -1.432931948803e-06 -1.402943621034e-06 -1.375178470137e-06 -1.349205979667e-06 -1.324640081743e-06 -1.301219299616e-06 -1.278774845781e-06 -1.257195933864e-06 -1.236406592897e-06 -1.216351717742e-06 -1.196988896791e-06 -1.178283623374e-06 -1.160206449634e-06 -1.142731272271e-06 -1.125834265114e-06 -1.109493161299e-06 -1.093686713316e-06 -1.078394195626e-06 -1.063594828697e-06 -1.049266989096e-06 -1.035387013317e-06 -1.021927276804e-06 -1.008852981835e-06 -9.961166384054e-07 -9.836483039392e-07 -9.713378660046e-07 -9.590020820530e-07 -9.463218328227e-07 -9.327203213250e-07 -9.170238306948e-07 -1.437459348711e-06 -1.440115366675e-06 -1.423523778668e-06 -1.401320356112e-06 -1.377450584741e-06 -1.353365599504e-06 -1.329643105763e-06 -1.306522498031e-06 -1.284099649796e-06 -1.262404951309e-06 -1.241437417846e-06 -1.221180728617e-06 -1.201611210592e-06 -1.182701997767e-06 -1.164425268620e-06 -1.146753491512e-06 -1.129660176325e-06 -1.113120405066e-06 -1.097111339232e-06 -1.081612877496e-06 -1.066608674050e-06 -1.052087874064e-06 -1.038048195129e-06 -1.024501643975e-06 -1.011485607690e-06 -9.990854561207e-07 -9.874830748227e-07 -9.770666070119e-07 -9.686909109448e-07 -9.643226347582e-07 -9.691876816012e-07 
        </DataArray>
        <DataArray type="Float64" Name="STRAIN_XY" format="ascii">
          5.290338036020e-09 3.553038034195e-09 2.569678996949e-09 1.923606273631e-09 1.481994267517e-09 1.174644936638e-09 9.581459770155e-10 8.038596576144e-10 6.924114947082e-10 6.105272428719e-10 5.490383701662e-10 5.015398816475e-10 4.634914344080e-10 4.315901690732e-10 4.033484992128e-10 3.767688214564e-10 3.501135793461e-10 3.217199764644e-10 2.898438163791e-10 2.524872270682e-10 2.072567934426e-10 1.511727446211e-10 8.044752572546e-11 -9.761086850322e-12 -1.256676102479e-10 -2.751763197842e-10 -4.680858757108e-10 -7.156621984583e-10 -1.027809741281e-09 -1.402037517778e-09 -1.770091763130e-09 5.997376188071e-07 5.831528799394e-07 5.669710623021e-07 5.513566683003e-07 5.363087705631e-07 5.218058289897e-07 5.078234666932e-07 4.943380081201e-07 4.813270998249e-07 4.687697146559e-07 4.566460114817e-07 4.449372635073e-07 4.336257718315e-07 4.226947733924e-07 4.121283615650e-07 4.019114683393e-07 3.920297892801e-07 3.824697337329e-07 3.732183927291e-07 3.642635300578e-07 3.555935067219e-07 3.471972857973e-07 3.390644121817e-07 3.311849673165e-07 3.235495387689e-07 3.161490912165e-07 3.089745285446e-07 3.020152762191e-07 2.952544876641e-07 2.886532527032e-07 2.820766100534e-07 1.176453059688e-06 1.143900077489e-06 1.112154786123e-06 1.081525298834e-06 1.052007641056e-06 1.023559078776e-06 9.961316723590e-07 9.696789980777e-07 9.441571972753e-07 9.195249855385e-07 8.957434785221e-07 8.727759516954e-07 8.505876586380e-07 8.291457146946e-07 8.084189555446e-07 7.883777973011e-07 7.689941700634e-07 7.502414359859e-07 7.320942850716e-07 7.145286747706e-07 6.975218075775e-07 6.810520278660e-07 6.650988171361e-07 6.496427280336e-07 6.346653063567e-07 6.201488273614e-07 6.060755090555e-07 5.924247404681e-07 5.791639450766e-07 5.662183546648e-07 5.533293868991e-07 1.708009934758e-06 1.660697175565e-06 1.614601189277e-06 1.570132168330e-06 1.527278778408e-06 1.485977786895e-06 1.446159362135e-06 1.407756024775e-06 1.370704100374e-06 1.334943671249e-06 1.300418263163e-06 1.267074560249e-06 1.234862136360e-06 1.203733248623e-06 1.173642631060e-06 1.144547359956e-06 1.116406682577e-06 1.089181912960e-06 1.062836308376e-06 1.037334986588e-06 1.012644822589e-06 9.887343957276e-07 9.655739157534e-07 9.431351526812e-07 9.213913193929e-07 9.003167292210e-07 8.798856609377e-07 8.600685662110e-07 8.408193504790e-07 8.220334273853e-07 8.033510540212e-07 2.174009530336e-06 2.113689216448e-06 2.055002843847e-06 1.998400832200e-06 1.943858026373e-06 1.891291673588e-06 1.840612392975e-06 1.791734191671e-06 1.744576011116e-06 1.699061590997e-06 1.655119042929e-06 1.612680519577e-06 1.571681842303e-06 1.532062239602e-06 1.493764106009e-06 1.456732808619e-06 1.420916478498e-06 1.386265876405e-06 1.352734246499e-06 1.320277182171e-06 1.288852532027e-06 1.258420305391e-06 1.228942585772e-06 1.200383453367e-06 1.172708834545e-06 1.145886098308e-06 1.119882718758e-06 1.094661787637e-06 1.070166955746e-06 1.046272754354e-06 1.022551546028e-06 2.556576196779e-06 2.485473992522e-06 2.416436922206e-06 2.349873736201e-06 2.285736823545e-06 2.223925016934e-06 2.164332379733e-06 2.106857623478e-06 2.051405406055e-06 1.997886027133e-06 1.946214977122e-06 1.896312472350e-06 1.848103040117e-06 1.801515225211e-06 1.756481305660e-06 1.712937020176e-06 1.670821389062e-06 1.630076518173e-06 1.590647421689e-06 1.552481880618e-06 1.515530347728e-06 1.479745783531e-06 1.445083618727e-06 1.411501622916e-06 1.378959768748e-06 1.347419782503e-06 1.316843786757e-06 1.287189543696e-06 1.258394718062e-06 1.230324640796e-06 1.202527473315e-06 2.841046348800e-06 2.761771171516e-06 2.685015602998e-06 2.611044705270e-06 2.539777390482e-06 2.471095226427e-06 2.404879211655e-06 2.341016528266e-06 2.279401166446e-06 2.219933459598e-06 2.162519508994e-06 2.107070654553e-06 2.053503041404e-06 2.001737283798e-06 1.951698119531e-06 1.903314154322e-06 1.856517634426e-06 1.811244230828e-06 1.767432840498e-06 1.725025461587e-06 1.683967016864e-06 1.644205264204e-06 1.605690676053e-06 1.568376353401e-06 1.532217860106e-06 1.497172860465e-06 1.463199790618e-06 1.430253579803e-06 1.398271059931e-06 1.367122749104e-06 1.336386377478e-06 3.016535031685e-06 2.931971551371e-06 2.850419890495e-06 2.771877972339e-06 2.696217604782e-06 2.623304071092e-06 2.553009108670e-06 2.485212538928e-06 2.419801728276e-06 2.356670862603e-06 2.295720255795e-06 2.236855787813e-06 2.179988446537e-06 2.125033954714e-06 2.071912412419e-06 2.020548038695e-06 1.970868901423e-06 1.922806702852e-06 1.876296595869e-06 1.831276995894e-06 1.787689439131e-06 1.745478472905e-06 1.704591534663e-06 1.664978849871e-06 1.626593339185e-06 1.589390295757e-06 1.553326434797e-06 1.518356647346e-06 1.484423019695e-06 1.451418243464e-06 1.419013671004e-06 3.076359172287e-06 2.989545584894e-06 2.906296316575e-06 2.826193885257e-06 2.749046154663e-06 2.674702672750e-06 2.603029848858e-06 2.533904527885e-06 2.467211759219e-06 2.402843619125e-06 2.340698467209e-06 2.280680339548e-06 2.222698493333e-06 2.166666982873e-06 2.112504357829e-06 2.060133347235e-06 2.009480616014e-06 1.960476527039e-06 1.913054967109e-06 1.867153144484e-06 1.822711464289e-06 1.779673384961e-06 1.737985332286e-06 1.697596605687e-06 1.658459312180e-06 1.620528228764e-06 1.583760437364e-06 1.548113955515e-06 1.513543077419e-06 1.479982525348e-06 1.447272514173e-06 3.018303044061e-06 2.932295725298e-06 2.850501463545e-06 2.771906495962e-06 2.696233594376e-06 2.623316305424e-06 2.553019524687e-06 2.485221577117e-06 2.419809525308e-06 2.356677493370e-06 2.295725765639e-06 2.236860233679e-06 2.179991887646e-06 2.125036445366e-06 2.071914011464e-06 2.020548810617e-06 1.970868908005e-06 1.922806018846e-06 1.876295288689e-06 1.831275150150e-06 1.787687153453e-06 1.745475863922e-06 1.704588751546e-06 1.664976161399e-06 1.626591277877e-06 1.589390283165e-06 1.553332816753e-06 1.518383515641e-06 1.484516901150e-06 1.451733008806e-06 1.420130167037e-06 2.844719658453e-06 2.762443653288e-06 2.685185271162e-06 2.611104088637e-06 2.539810529256e-06 2.471120425337e-06 2.404900552367e-06 2.341034977011e-06 2.279417026561e-06 2.219946899867e-06 2.162530660643e-06 2.107079640608e-06 2.053510000960e-06 2.001742330722e-06 1.951701380425e-06 1.903315764808e-06 1.856517727666e-06 1.811242942558e-06 1.767430338916e-06 1.725021913519e-06 1.683962628873e-06 1.644200285944e-06 1.605685452777e-06 1.568371428482e-06 1.532214373378e-06 1.497173761150e-06 1.463214100692e-06 1.430310543037e-06 1.398467322045e-06 1.367777876725e-06 1.338708485625e-06 2.562473449640e-06 2.486550471989e-06 2.416711105808e-06 2.349970547522e-06 2.285790411131e-06 2.223965238904e-06 2.164366170733e-06 2.106886715777e-06 2.051430333554e-06 1.997907097037e-06 1.946232442970e-06 1.896326561512e-06 1.848113991580e-06 1.801523263878e-06 1.756486631762e-06 1.712939855535e-06 1.670821953441e-06 1.630075038682e-06 1.590644156995e-06 1.552477141847e-06 1.515524480924e-06 1.479739237211e-06 1.445076973098e-06 1.411495777653e-06 1.378956528559e-06 1.347423905625e-06 1.316869795511e-06 1.287284528801e-06 1.258713741919e-06 1.231379852435e-06 1.206262734101e-06 2.182752773281e-06 2.115275407237e-06 2.055419244078e-06 1.998555049311e-06 1.943943128197e-06 1.891353044180e-06 1.840662448209e-06 1.791776833549e-06 1.744612593513e-06 1.699092661469e-06 1.655144951700e-06 1.612701575345e-06 1.571698376375e-06 1.532074603365e-06 1.493772664596e-06 1.456737937399e-06 1.420918575483e-06 1.386265363069e-06 1.352731583265e-06 1.320272862669e-06 1.288847090610e-06 1.258414345408e-06 1.228936871060e-06 1.200379245969e-06 1.172708965453e-06 1.145898200221e-06 1.119929393862e-06 1.094813562498e-06 1.070651834129e-06 1.047843852446e-06 1.028105881142e-06 1.720854920903e-06 1.662978740507e-06 1.615241255837e-06 1.570416177454e-06 1.527451499746e-06 1.486095173930e-06 1.446243159576e-06 1.407818796459e-06 1.370753449671e-06 1.334983874526e-06 1.300451550179e-06 1.267102076716e-06 1.234884540500e-06 1.203751020036e-06 1.173656229010e-06 1.144557230972e-06 1.116413258926e-06 1.089185578774e-06 1.062837397778e-06 1.037333827407e-06 1.012641913136e-06 9.887307316316e-07 9.655715762931e-07 9.431382875569e-07 9.214078550905e-07 9.003622108264e-07 8.799950762229e-07 8.603387001193e-07 8.415637473779e-07 8.243334177829e-07 8.115350054565e-07 1.196448533543e-06 1.147097206166e-06 1.112960622039e-06 1.082034562355e-06 1.052476248499e-06 1.023957062293e-06 9.964309336112e-07 9.698807249393e-07 9.442786044384e-07 9.195873747979e-07 8.957660433529e-07 8.727735914739e-07 8.505708471403e-07 8.291212070742e-07 8.083908288770e-07 7.883485639103e-07 7.689658397824e-07 7.502164734460e-07 7.320765271029e-07 7.145241512532e-07 6.975392462729e-07 6.811029232064e-07 6.651965767395e-07 6.498003592552e-07 6.348914472228e-07 6.204444222124e-07 6.064429342460e-07 5.929345336561e-07 5.802311815254e-07 5.695739509743e-07 5.660876226885e-07 6.478390070650e-07 5.885707015286e-07 5.631541514822e-07 5.463155559389e-07 5.321264161897e-07 5.188265324892e-07 5.059089666637e-07 4.932529165778e-07 4.808526798012e-07 4.687306508696e-07 4.569099578691e-07 4.454069374755e-07 4.342301638481e-07 4.233814640707e-07 4.128571928626e-07 4.026492957994e-07 3.927461146764e-07 3.831328307753e-07 3.737916224154e-07 3.647016778519e-07 3.558392345115e-07 3.471779539902e-07 3.386904549844e-07 3.303529044217e-07 3.221570097087e-07 3.141404379491e-07 3.064633736758e-07 2.996033588788e-07 2.948605892826e-07 2.956947310756e-07 3.126798899708e-07 -4.462127728735e-08 1.654468725028e-08 2.685537164285e-08 2.538538059684e-08 2.125253620020e-08 1.707568058743e-08 1.353145486204e-08 1.070609650208e-08 8.517324266763e-09 6.849488529303e-09 5.595593430680e-09 4.668167571529e-09 3.999813488829e-09 3.540689371041e-09 3.255564328984e-09 3.121209651566e-09 3.124339259343e-09 3.260106811285e-09 3.530987269451e-09 3.945940540738e-09 4.519511509002e-09 5.270363340183e-09 6.218348216890e-09 7.377835611578e-09 8.742456686392e-09 1.024963422223e-08 1.169614279676e-08 1.253155396705e-08 1.133764892476e-08 4.478872235424e-09 -1.871000065184e-08 
        </DataArray>
        <DataArray type="Float64" Name="STRAIN_YY" format="ascii">
          -1.479282422176e-06 -1.450617487155e-06 -1.423017997991e-06 -1.396432921772e-06 -1.370815589357e-06 -1.346122059835e-06 -1.322310862835e-06 -1.299342803713e-06 -1.277180799354e-06 -1.255789734006e-06 -1.235136330156e-06 -1.215189031527e-06 -1.195917896188e-06 -1.177294498286e-06 -1.159291837231e-06 -1.141884253527e-06 -1.125047350507e-06 -1.108757921325e-06 -1.092993880762e-06 -1.077734201398e-06 -1.062958853662e-06 -1.048648749485e-06 -1.034785689185e-06 -1.021352311195e-06 -1.008332044403e-06 -9.957090628102e-07 -9.834682424726e-07 -9.715951213950e-07 -9.600758654142e-07 -9.488972508566e-07 -9.380464819765e-07 -1.479282602810e-06 -1.450617444840e-06 -1.423017914583e-06 -1.396432828642e-06 -1.370815493184e-06 -1.346121962059e-06 -1.322310763776e-06 -1.299342703455e-06 -1.277180697940e-06 -1.255789631471e-06 -1.235136226537e-06 -1.215188926865e-06 -1.195917790530e-06 -1.177294391670e-06 -1.159291729693e-06 -1.141884145109e-06 -1.125047241240e-06 -1.108757811241e-06 -1.092993769896e-06 -1.077734089773e-06 -1.062958741294e-06 -1.048648636392e-06 -1.034785575370e-06 -1.021352196651e-06 -1.008331929072e-06 -9.957089464915e-07 -9.834681244783e-07 -9.715949994197e-07 -9.600757317904e-07 -9.488970802020e-07 -9.380461821458e-07 -1.479283161061e-06 -1.450617316900e-06 -1.423017660192e-06 -1.396432544369e-06 -1.370815199595e-06 -1.346121663591e-06 -1.322310461422e-06 -1.299342397489e-06 -1.277180388508e-06 -1.255789318704e-06 -1.235135910557e-06 -1.215188607810e-06 -1.195917468535e-06 -1.177294066862e-06 -1.159291402195e-06 -1.141883815038e-06 -1.125046908701e-06 -1.108757476331e-06 -1.092993432704e-06 -1.077733750367e-06 -1.062958399738e-06 -1.048648292733e-06 -1.034785229623e-06 -1.021351848779e-06 -1.008331578905e-06 -9.957085933891e-07 -9.834677663084e-07 -9.715946291017e-07 -9.600753257337e-07 -9.488965602623e-07 -9.380452646878e-07 -1.479284148990e-06 -1.450617100515e-06 -1.423017222025e-06 -1.396432053939e-06 -1.370814693053e-06 -1.346121148742e-06 -1.322309940070e-06 -1.299341870184e-06 -1.277179855536e-06 -1.255788780313e-06 -1.235135367018e-06 -1.215188059371e-06 -1.195916915435e-06 -1.177293509343e-06 -1.159290840488e-06 -1.141883249341e-06 -1.125046339204e-06 -1.108756903200e-06 -1.092992856081e-06 -1.077733170375e-06 -1.062957816476e-06 -1.048647706259e-06 -1.034784639960e-06 -1.021351255845e-06 -1.008330982356e-06 -9.957079920958e-07 -9.834671565318e-07 -9.715939983780e-07 -9.600746326489e-07 -9.488956676772e-07 -9.380436746628e-07 -1.479285664203e-06 -1.450616791613e-06 -1.423016577830e-06 -1.396431331252e-06 -1.370813946728e-06 -1.346120390762e-06 -1.322309173250e-06 -1.299341095414e-06 -1.277179073338e-06 -1.255787991143e-06 -1.235134571303e-06 -1.215187257539e-06 -1.195916107886e-06 -1.177292696446e-06 -1.159290022584e-06 -1.141882426745e-06 -1.125045512188e-06 -1.108756072011e-06 -1.092992020917e-06 -1.077732331390e-06 -1.062956973779e-06 -1.048646859920e-06 -1.034783789956e-06 -1.021350402023e-06 -1.008330124167e-06 -9.957071277765e-07 -9.834662803502e-07 -9.715930914326e-07 -9.600736321704e-07 -9.488943658772e-07 -9.380413168811e-07 -1.479287869217e-06 -1.450616385676e-06 -1.423015693827e-06 -1.396430336946e-06 -1.370812920774e-06 -1.346119350464e-06 -1.322308122819e-06 -1.299340036263e-06 -1.277178006302e-06 -1.255786916950e-06 -1.235133490616e-06 -1.215186170989e-06 -1.195915016082e-06 -1.177291599928e-06 -1.159288921828e-06 -1.141881322184e-06 -1.125044404182e-06 -1.108754960845e-06 -1.092990906833e-06 -1.077731214559e-06 -1.062955854299e-06 -1.048645737806e-06 -1.034782665113e-06 -1.021349274129e-06 -1.008328992347e-06 -9.957059894168e-07 -9.834651271710e-07 -9.715918962856e-07 -9.600723051349e-07 -9.488926092985e-07 -9.380380492839e-07 -1.479291025685e-06 -1.450615877833e-06 -1.423014519769e-06 -1.396429013129e-06 -1.370811557799e-06 -1.346117972765e-06 -1.322306736454e-06 -1.299338643347e-06 -1.277176608099e-06 -1.255785514516e-06 -1.235132084957e-06 -1.215184762995e-06 -1.195913606560e-06 -1.177290189605e-06 -1.159287511332e-06 -1.141879912019e-06 -1.125042994781e-06 -1.108753552521e-06 -1.092989499791e-06 -1.077729808917e-06 -1.062954450069e-06 -1.048644334865e-06 -1.034781263197e-06 -1.021347872651e-06 -1.008327589900e-06 -9.957045821743e-07 -9.834637033580e-07 -9.715904176333e-07 -9.600706452338e-07 -9.488903498777e-07 -9.380336693840e-07 -1.479295554852e-06 -1.450615260371e-06 -1.423012976984e-06 -1.396427270934e-06 -1.370809771610e-06 -1.346116177079e-06 -1.322304939812e-06 -1.299336848758e-06 -1.277174817360e-06 -1.255783729094e-06 -1.235130306124e-06 -1.215182991941e-06 -1.195911844301e-06 -1.177288437003e-06 -1.159285769077e-06 -1.141878180670e-06 -1.125041274711e-06 -1.108751843977e-06 -1.092987802855e-06 -1.077728123528e-06 -1.062952775989e-06 -1.048642671701e-06 -1.034779610280e-06 -1.021346228885e-06 -1.008325953079e-06 -9.957029466602e-07 -9.834620523217e-07 -9.715886971013e-07 -9.600686772738e-07 -9.488875456961e-07 -9.380278858135e-07 -1.479302147513e-06 -1.450614512024e-06 -1.423010929725e-06 -1.396424960981e-06 -1.370807420438e-06 -1.346113833592e-06 -1.322302616064e-06 -1.299334548855e-06 -1.277172543603e-06 -1.255781483256e-06 -1.235128089797e-06 -1.215180806425e-06 -1.195909690683e-06 -1.177286316147e-06 -1.159283681627e-06 -1.141876126994e-06 -1.125039254991e-06 -1.108749858137e-06 -1.092985850609e-06 -1.077726204346e-06 -1.062950889138e-06 -1.048640816172e-06 -1.034777784739e-06 -1.021344431339e-06 -1.008324179949e-06 -9.957011894756e-07 -9.834602867049e-07 -9.715868456095e-07 -9.600664854286e-07 -9.488841711981e-07 -9.380202575155e-07 -1.479311976511e-06 -1.450613566905e-06 -1.423008118195e-06 -1.396421804418e-06 -1.370804242795e-06 -1.346110705737e-06 -1.322299554886e-06 -1.299331559607e-06 -1.277169628905e-06 -1.255778645006e-06 -1.235125329455e-06 -1.215178125173e-06 -1.195907089359e-06 -1.177283795235e-06 -1.159281241273e-06 -1.141873767051e-06 -1.125036974921e-06 -1.108747657127e-06 -1.092983727536e-06 -1.077724157771e-06 -1.062948917273e-06 -1.048638916891e-06 -1.034775955385e-06 -1.021342668333e-06 -1.008322477349e-06 -9.956995342377e-07 -9.834586424590e-07 -9.715850981069e-07 -9.600642600353e-07 -9.488802271718e-07 -9.380100592246e-07 -1.479327141252e-06 -1.450612230154e-06 -1.423003996673e-06 -1.396417226669e-06 -1.370799702717e-06 -1.346106309326e-06 -1.322295325637e-06 -1.299327503549e-06 -1.277165748354e-06 -1.255774941233e-06 -1.235121803178e-06 -1.215174776636e-06 -1.195903918315e-06 -1.177280800975e-06 -1.159278422697e-06 -1.141871122550e-06 -1.125034502472e-06 -1.108745354300e-06 -1.092981591438e-06 -1.077722185037e-06 -1.062947104129e-06 -1.048637258979e-06 -1.034774447577e-06 -1.021341304138e-06 -1.008321246768e-06 -9.956984164365e-07 -9.834575809983e-07 -9.715839170680e-07 -9.600623837686e-07 -9.488757477027e-07 -9.379959732268e-07 -1.479351677840e-06 -1.450609943389e-06 -1.422997318608e-06 -1.396409926585e-06 -1.370792583254e-06 -1.346099540830e-06 -1.322288940896e-06 -1.299321506638e-06 -1.277160138437e-06 -1.255769717008e-06 -1.235116963099e-06 -1.215170318690e-06 -1.195899839869e-06 -1.177277098668e-06 -1.159275092488e-06 -1.141868159855e-06 -1.125031902088e-06 -1.108743110381e-06 -1.092979697539e-06 -1.077720634033e-06 -1.062945888059e-06 -1.048636369105e-06 -1.034773874240e-06 -1.021341035800e-06 -1.008321266509e-06 -9.956986896216e-07 -9.834580138596e-07 -9.715842201796e-07 -9.600616178419e-07 -9.488708017374e-07 -9.379753395703e-07 -1.479393958087e-06 -1.450605021312e-06 -1.422984973528e-06 -1.396396636694e-06 -1.370779767927e-06 -1.346087537430e-06 -1.322277820335e-06 -1.299311268288e-06 -1.277150766072e-06 -1.255761195203e-06 -1.235109280433e-06 -1.215163466618e-06 -1.195893810955e-06 -1.177271885230e-06 -1.159270685745e-06 -1.141864549525e-06 -1.125029076343e-06 -1.108741055989e-06 -1.092978400117e-06 -1.077720078619e-06 -1.062946059833e-06 -1.048637253710e-06 -1.034775457194e-06 -1.021343299238e-06 -1.008324179209e-06 -9.957021805758e-07 -9.834618986169e-07 -9.715879715687e-07 -9.600635917432e-07 -9.488655465953e-07 -9.379422463057e-07 -1.479470767651e-06 -1.450590809852e-06 -1.422958364005e-06 -1.396368511812e-06 -1.370752317676e-06 -1.346061565975e-06 -1.322253764342e-06 -1.299289337836e-06 -1.277131020180e-06 -1.255743611079e-06 -1.235093802662e-06 -1.215150034165e-06 -1.195882368417e-06 -1.177262385665e-06 -1.159263089826e-06 -1.141858824175e-06 -1.125025194110e-06 -1.108738994993e-06 -1.092978144219e-06 -1.077721616424e-06 -1.062949380583e-06 -1.048642338213e-06 -1.034782262055e-06 -1.021351734128e-06 -1.008334079829e-06 -9.957132778672e-07 -9.834737509670e-07 -9.715996605435e-07 -9.600723389593e-07 -9.488611937026e-07 -9.378830376568e-07 -1.479578542198e-06 -1.450515042146e-06 -1.422884104627e-06 -1.396303754626e-06 -1.370689537421e-06 -1.345997306778e-06 -1.322188494745e-06 -1.299225168784e-06 -1.277070247144e-06 -1.255688090639e-06 -1.235044802261e-06 -1.215108291632e-06 -1.195848217033e-06 -1.177235877815e-06 -1.159244093445e-06 -1.141847084813e-06 -1.125020363502e-06 -1.108740631362e-06 -1.092985691026e-06 -1.077734367541e-06 -1.062966445340e-06 -1.048662627853e-06 -1.034804530075e-06 -1.021374719487e-06 -1.008356812211e-06 -9.957355737080e-07 -9.834967520910e-07 -9.716256188644e-07 -9.601007977577e-07 -9.488726141270e-07 -9.377723842738e-07 -1.483840278580e-06 -1.450533046136e-06 -1.421890329440e-06 -1.395183599190e-06 -1.369691970731e-06 -1.345167055534e-06 -1.321507990739e-06 -1.298662397284e-06 -1.276594418788e-06 -1.255273992281e-06 -1.234673224129e-06 -1.214765238372e-06 -1.195523895014e-06 -1.176923798659e-06 -1.158940388065e-06 -1.141550035818e-06 -1.124730133717e-06 -1.108459158462e-06 -1.092716718695e-06 -1.077483578177e-06 -1.062741638060e-06 -1.048473836254e-06 -1.034663868535e-06 -1.021295510570e-06 -1.008351038948e-06 -9.958075690068e-07 -9.836284358300e-07 -9.717424204703e-07 -9.599922506969e-07 -9.480032696039e-07 -9.347408161884e-07 -1.434298995345e-06 -1.439098438549e-06 -1.423153822504e-06 -1.401188503298e-06 -1.377413707247e-06 -1.353368636318e-06 -1.329663069656e-06 -1.306549192261e-06 -1.284128402773e-06 -1.262433636028e-06 -1.241465133375e-06 -1.221207180657e-06 -1.201636406606e-06 -1.182726089968e-06 -1.164448471970e-06 -1.146776038548e-06 -1.129682288125e-06 -1.113142267771e-06 -1.097133074679e-06 -1.081634498185e-06 -1.066630004729e-06 -1.052108407401e-06 -1.038066821771e-06 -1.024516123390e-06 -1.011491489767e-06 -9.990737795165e-07 -9.874352111520e-07 -9.769421583276e-07 -9.683980400588e-07 -9.636425429583e-07 -9.675297078979e-07 
        </DataArray>
        <DataArray type="Float64" Name="DISPLACEMENT" NumberOfComponents="3" format="ascii">
          -2.586336030469e-07 0.000000000000e+00 0.000000000000e+00 -2.560371354080e-07 0.000000000000e+00 0.000000000000e+00 -2.535356823325e-07 0.000000000000e+00 0.000000000000e+00 -2.511252293618e-07 0.000000000000e+00 0.000000000000e+00 -2.488021930069e-07 0.000000000000e+00 0.000000000000e+00 -2.465632508090e-07 0.000000000000e+00 0.000000000000e+00 -2.444052818322e-07 0.000000000000e+00 0.000000000000e+00 -2.423253364132e-07 0.000000000000e+00 0.000000000000e+00 -2.403206163041e-07 0.000000000000e+00 0.000000000000e+00 -2.383884599328e-07 0.000000000000e+00 0.000000000000e+00 -2.365263307805e-07 0.000000000000e+00 0.000000000000e+00 -2.347318078622e-07 0.000000000000e+00 0.000000000000e+00 -2.330025777060e-07 0.000000000000e+00 0.000000000000e+00 -2.313364274197e-07 0.000000000000e+00 0.000000000000e+00 -2.297312385622e-07 0.000000000000e+00 0.000000000000e+00 -2.281849816341e-07 0.000000000000e+00 0.000000000000e+00 -2.266957110463e-07 0.000000000000e+00 0.000000000000e+00 -2.252615604461e-07 0.000000000000e+00 0.000000000000e+00 -2.238807383379e-07 0.000000000000e+00 0.000000000000e+00 -2.225515239176e-07 0.000000000000e+00 0.000000000000e+00 -2.212722630502e-07 0.000000000000e+00 0.000000000000e+00 -2.200413643458e-07 0.000000000000e+00 0.000000000000e+00 -2.188572952663e-07 0.000000000000e+00 0.000000000000e+00 -2.177185781829e-07 0.000000000000e+00 0.000000000000e+00 -2.166237863378e-07 0.000000000000e+00 0.000000000000e+00 -2.155715396483e-07 0.000000000000e+00 0.000000000000e+00 -2.145605003833e-07 0.000000000000e+00 0.000000000000e+00 -2.135893690866e-07 0.000000000000e+00 0.000000000000e+00 -2.126568822564e-07 0.000000000000e+00 0.000000000000e+00 -2.117618170827e-07 0.000000000000e+00 0.000000000000e+00 -2.109030209474e-07 0.000000000000e+00 0.000000000000e+00 -2.573883289859e-07 -2.534905425354e-08 0.000000000000e+00 -2.548042582926e-07 -2.509562192827e-08 0.000000000000e+00 -2.523148277150e-07 -2.485067003751e-08 0.000000000000e+00 -2.499159766315e-07 -2.461446007717e-08 0.000000000000e+00 -2.476041249790e-07 -2.438677960577e-08 0.000000000000e+00 -2.453759633443e-07 -2.416733292419e-08 0.000000000000e+00 -2.432283851848e-07 -2.395582075709e-08 0.000000000000e+00 -2.411584549055e-07 -2.375195552831e-08 0.000000000000e+00 -2.391633877074e-07 -2.355546336284e-08 0.000000000000e+00 -2.372405348314e-07 -2.336608350949e-08 0.000000000000e+00 -2.353873719735e-07 -2.318356739844e-08 0.000000000000e+00 -2.336014898089e-07 -2.300767776467e-08 0.000000000000e+00 -2.318805860070e-07 -2.283818787291e-08 0.000000000000e+00 -2.302224583312e-07 -2.267488083138e-08 0.000000000000e+00 -2.286249985405e-07 -2.251754900670e-08 0.000000000000e+00 -2.270861869097e-07 -2.236599347961e-08 0.000000000000e+00 -2.256040872161e-07 -2.222002355298e-08 0.000000000000e+00 -2.241768420956e-07 -2.207945628673e-08 0.000000000000e+00 -2.228026686785e-07 -2.194411608805e-08 0.000000000000e+00 -2.214798544446e-07 -2.181383428102e-08 0.000000000000e+00 -2.202067532226e-07 -2.168844872487e-08 0.000000000000e+00 -2.189817812843e-07 -2.156780342880e-08 0.000000000000e+00 -2.178034134658e-07 -2.145174818080e-08 0.000000000000e+00 -2.166701792461e-07 -2.134013818787e-08 0.000000000000e+00 -2.155806587113e-07 -2.123283381826e-08 0.000000000000e+00 -2.145334783378e-07 -2.112970059506e-08 0.000000000000e+00 -2.135273065506e-07 -2.103061022476e-08 0.000000000000e+00 -2.125608491934e-07 -2.093544504845e-08 0.000000000000e+00 -2.116328456452e-07 -2.084411401509e-08 0.000000000000e+00 -2.107420683365e-07 -2.075660668491e-08 0.000000000000e+00 -2.098873350784e-07 -2.067317156966e-08 0.000000000000e+00 -2.536645033421e-07 -5.045397748372e-08 0.000000000000e+00 -2.511175009817e-07 -4.994955301958e-08 0.000000000000e+00 -2.486640214605e-07 -4.946200829316e-08 0.000000000000e+00 -2.462998641705e-07 -4.899186329773e-08 0.000000000000e+00 -2.440214588849e-07 -4.853869509842e-08 0.000000000000e+00 -2.418255351146e-07 -4.810191511804e-08 0.000000000000e+00 -2.397090293417e-07 -4.768092771078e-08 0.000000000000e+00 -2.376690480396e-07 -4.727516050630e-08 0.000000000000e+00 -2.357028466242e-07 -4.688406839408e-08 0.000000000000e+00 -2.338078146525e-07 -4.650713239151e-08 0.000000000000e+00 -2.319814643462e-07 -4.614385776814e-08 0.000000000000e+00 -2.302214212473e-07 -4.579377227419e-08 0.000000000000e+00 -2.285254163408e-07 -4.545642461749e-08 0.000000000000e+00 -2.268912792549e-07 -4.513138311898e-08 0.000000000000e+00 -2.253169322540e-07 -4.481823450802e-08 0.000000000000e+00 -2.238003848361e-07 -4.451658286136e-08 0.000000000000e+00 -2.223397287923e-07 -4.422604862307e-08 0.000000000000e+00 -2.209331336317e-07 -4.394626768755e-08 0.000000000000e+00 -2.195788422798e-07 -4.367689054078e-08 0.000000000000e+00 -2.182751669904e-07 -4.341758146593e-08 0.000000000000e+00 -2.170204854079e-07 -4.316801773987e-08 0.000000000000e+00 -2.158132367137e-07 -4.292788888163e-08 0.000000000000e+00 -2.146519177981e-07 -4.269689590968e-08 0.000000000000e+00 -2.135350793901e-07 -4.247475064132e-08 0.000000000000e+00 -2.124613220416e-07 -4.226117514212e-08 0.000000000000e+00 -2.114292918401e-07 -4.205590175637e-08 0.000000000000e+00 -2.104376756109e-07 -4.185867512664e-08 0.000000000000e+00 -2.094851950224e-07 -4.166926106263e-08 0.000000000000e+00 -2.085705979748e-07 -4.148747834781e-08 0.000000000000e+00 -2.076926423486e-07 -4.131330629626e-08 0.000000000000e+00 -2.068500564775e-07 -4.114723991834e-08 0.000000000000e+00 -2.474980006445e-07 -7.507299065592e-08 0.000000000000e+00 -2.450123713364e-07 -7.432243081889e-08 0.000000000000e+00 -2.426184231830e-07 -7.359698860561e-08 0.000000000000e+00 -2.403117170573e-07 -7.289743648443e-08 0.000000000000e+00 -2.380886976286e-07 -7.222314486932e-08 0.000000000000e+00 -2.359461585635e-07 -7.157323797439e-08 0.000000000000e+00 -2.338811075351e-07 -7.094682952449e-08 0.000000000000e+00 -2.318907206690e-07 -7.034306789182e-08 0.000000000000e+00 -2.299723199687e-07 -6.976114200828e-08 0.000000000000e+00 -2.281233584378e-07 -6.920027966884e-08 0.000000000000e+00 -2.263414087886e-07 -6.865974474680e-08 0.000000000000e+00 -2.246241542939e-07 -6.813883457689e-08 0.000000000000e+00 -2.229693811066e-07 -6.763687766596e-08 0.000000000000e+00 -2.213749716252e-07 -6.715323169467e-08 0.000000000000e+00 -2.198388986296e-07 -6.668728174677e-08 0.000000000000e+00 -2.183592200065e-07 -6.623843871276e-08 0.000000000000e+00 -2.169340739389e-07 -6.580613782805e-08 0.000000000000e+00 -2.155616744346e-07 -6.538983732308e-08 0.000000000000e+00 -2.142403071332e-07 -6.498901714747e-08 0.000000000000e+00 -2.129683253153e-07 -6.460317776274e-08 0.000000000000e+00 -2.117441460617e-07 -6.423183897303e-08 0.000000000000e+00 -2.105662464878e-07 -6.387453879924e-08 0.000000000000e+00 -2.094331600091e-07 -6.353083236349e-08 0.000000000000e+00 -2.083434725391e-07 -6.320029085803e-08 0.000000000000e+00 -2.072958185135e-07 -6.288250072542e-08 0.000000000000e+00 -2.062888764920e-07 -6.257706369599e-08 0.000000000000e+00 -2.053213637451e-07 -6.228359979475e-08 0.000000000000e+00 -2.043920280422e-07 -6.200176055423e-08 0.000000000000e+00 -2.034996310779e-07 -6.173127635845e-08 0.000000000000e+00 -2.026429055606e-07 -6.147211664533e-08 0.000000000000e+00 -2.018204280299e-07 -6.122501897029e-08 0.000000000000e+00 -2.389482293208e-07 -9.896899631717e-08 0.000000000000e+00 -2.365476694286e-07 -9.797952744610e-08 0.000000000000e+00 -2.342362560739e-07 -9.702317408400e-08 0.000000000000e+00 -2.320092044998e-07 -9.610095205388e-08 0.000000000000e+00 -2.298629769393e-07 -9.521203082962e-08 0.000000000000e+00 -2.277944553680e-07 -9.435525580894e-08 0.000000000000e+00 -2.258007460140e-07 -9.352945866148e-08 0.000000000000e+00 -2.238791215415e-07 -9.273351674159e-08 0.000000000000e+00 -2.220269962758e-07 -9.196636086475e-08 0.000000000000e+00 -2.202419111875e-07 -9.122697306055e-08 0.000000000000e+00 -2.185215228494e-07 -9.051438291912e-08 0.000000000000e+00 -2.168635945825e-07 -8.982766413446e-08 0.000000000000e+00 -2.152659890274e-07 -8.916593148671e-08 0.000000000000e+00 -2.137266617420e-07 -8.852833821388e-08 0.000000000000e+00 -2.122436555429e-07 -8.791407367726e-08 0.000000000000e+00 -2.108150954121e-07 -8.732236125408e-08 0.000000000000e+00 -2.094391838485e-07 -8.675245641868e-08 0.000000000000e+00 -2.081141965599e-07 -8.620364495521e-08 0.000000000000e+00 -2.068384784046e-07 -8.567524128127e-08 0.000000000000e+00 -2.056104395442e-07 -8.516658685068e-08 0.000000000000e+00 -2.044285517351e-07 -8.467704862058e-08 0.000000000000e+00 -2.032913446911e-07 -8.420601754916e-08 0.000000000000e+00 -2.021974024611e-07 -8.375290715067e-08 0.000000000000e+00 -2.011453597457e-07 -8.331715210848e-08 0.000000000000e+00 -2.001338979530e-07 -8.289820721542e-08 0.000000000000e+00 -1.991617406427e-07 -8.249554740414e-08 0.000000000000e+00 -1.982276472294e-07 -8.210867173174e-08 0.000000000000e+00 -1.973304014700e-07 -8.173712078704e-08 0.000000000000e+00 -1.964687834664e-07 -8.138053919992e-08 0.000000000000e+00 -1.956414886246e-07 -8.103888710629e-08 0.000000000000e+00 -1.948468749733e-07 -8.071313885096e-08 0.000000000000e+00 -2.280975621707e-07 -1.219118635582e-07 0.000000000000e+00 -2.258049218287e-07 -1.206930116054e-07 0.000000000000e+00 -2.235982463920e-07 -1.195149570322e-07 0.000000000000e+00 -2.214722846633e-07 -1.183789466777e-07 0.000000000000e+00 -2.194235154125e-07 -1.172839565240e-07 0.000000000000e+00 -2.174489314820e-07 -1.162285642158e-07 0.000000000000e+00 -2.155457639259e-07 -1.152113306726e-07 0.000000000000e+00 -2.137114078678e-07 -1.142308731035e-07 0.000000000000e+00 -2.119433947824e-07 -1.132858745435e-07 0.000000000000e+00 -2.102393772779e-07 -1.123750810971e-07 0.000000000000e+00 -2.085971183525e-07 -1.114972974445e-07 0.000000000000e+00 -2.070144829134e-07 -1.106513825694e-07 0.000000000000e+00 -2.054894306764e-07 -1.098362460645e-07 0.000000000000e+00 -2.040200100446e-07 -1.090508448946e-07 0.000000000000e+00 -2.026043527148e-07 -1.082941805073e-07 0.000000000000e+00 -2.012406688194e-07 -1.075652962511e-07 0.000000000000e+00 -1.999272424811e-07 -1.068632750154e-07 0.000000000000e+00 -1.986624277044e-07 -1.061872370155e-07 0.000000000000e+00 -1.974446445073e-07 -1.055363377324e-07 0.000000000000e+00 -1.962723752392e-07 -1.049097659612e-07 0.000000000000e+00 -1.951441610428e-07 -1.043067418960e-07 0.000000000000e+00 -1.940585983801e-07 -1.037265152989e-07 0.000000000000e+00 -1.930143355629e-07 -1.031683637090e-07 0.000000000000e+00 -1.920100691958e-07 -1.026315907409e-07 0.000000000000e+00 -1.910445402927e-07 -1.021155247597e-07 0.000000000000e+00 -1.901165294873e-07 -1.016195189442e-07 0.000000000000e+00 -1.892248495678e-07 -1.011429561698e-07 0.000000000000e+00 -1.883683295673e-07 -1.006852704981e-07 0.000000000000e+00 -1.875457716303e-07 -1.002460242735e-07 0.000000000000e+00 -1.867558193431e-07 -9.982516915852e-08 0.000000000000e+00 -1.859965384098e-07 -9.942390894062e-08 0.000000000000e+00 -2.150505473753e-07 -1.436806466360e-07 0.000000000000e+00 -2.128875971782e-07 -1.422441448777e-07 0.000000000000e+00 -2.108068461356e-07 -1.408557338479e-07 0.000000000000e+00 -2.088024346997e-07 -1.395168755650e-07 0.000000000000e+00 -2.068708517462e-07 -1.382263615442e-07 0.000000000000e+00 -2.050092213655e-07 -1.369825153126e-07 0.000000000000e+00 -2.032149242700e-07 -1.357836409701e-07 0.000000000000e+00 -2.014855027378e-07 -1.346281089742e-07 0.000000000000e+00 -1.998186290835e-07 -1.335143673294e-07 0.000000000000e+00 -1.982120901382e-07 -1.324409383475e-07 0.000000000000e+00 -1.966637768746e-07 -1.314064133279e-07 0.000000000000e+00 -1.951716763388e-07 -1.304094475665e-07 0.000000000000e+00 -1.937338649644e-07 -1.294487559884e-07 0.000000000000e+00 -1.923485027954e-07 -1.285231093352e-07 0.000000000000e+00 -1.910138283988e-07 -1.276313307661e-07 0.000000000000e+00 -1.897281542831e-07 -1.267722928269e-07 0.000000000000e+00 -1.884898627212e-07 -1.259449146461e-07 0.000000000000e+00 -1.872974018591e-07 -1.251481593467e-07 0.000000000000e+00 -1.861492820802e-07 -1.243810316131e-07 0.000000000000e+00 -1.850440725343e-07 -1.236425753754e-07 0.000000000000e+00 -1.839803977940e-07 -1.229318715737e-07 0.000000000000e+00 -1.829569345748e-07 -1.222480359920e-07 0.000000000000e+00 -1.819724084581e-07 -1.215902171322e-07 0.000000000000e+00 -1.810255904756e-07 -1.209575942226e-07 0.000000000000e+00 -1.801152932854e-07 -1.203493756580e-07 0.000000000000e+00 -1.792403660917e-07 -1.197647990441e-07 0.000000000000e+00 -1.783996856646e-07 -1.192031369795e-07 0.000000000000e+00 -1.775921348127e-07 -1.186637224196e-07 0.000000000000e+00 -1.768165399323e-07 -1.181460397247e-07 0.000000000000e+00 -1.760714746845e-07 -1.176500331780e-07 0.000000000000e+00 -1.753546275953e-07 -1.171771274834e-07 0.000000000000e+00 -1.999329087019e-07 -1.640657159698e-07 0.000000000000e+00 -1.979201105667e-07 -1.624253912399e-07 0.000000000000e+00 -1.959852460879e-07 -1.608399940845e-07 0.000000000000e+00 -1.941216730799e-07 -1.593111818283e-07 0.000000000000e+00 -1.923258761880e-07 -1.578375719254e-07 0.000000000000e+00 -1.905951282667e-07 -1.564172498034e-07 0.000000000000e+00 -1.889269827174e-07 -1.550482791967e-07 0.000000000000e+00 -1.873191521805e-07 -1.537287996182e-07 0.000000000000e+00 -1.857694721285e-07 -1.524570390866e-07 0.000000000000e+00 -1.842758849089e-07 -1.512313104126e-07 0.000000000000e+00 -1.828364297628e-07 -1.500500051427e-07 0.000000000000e+00 -1.814492352699e-07 -1.489115878600e-07 0.000000000000e+00 -1.801125130971e-07 -1.478145912242e-07 0.000000000000e+00 -1.788245526426e-07 -1.467576116013e-07 0.000000000000e+00 -1.775837162981e-07 -1.457393052160e-07 0.000000000000e+00 -1.763884352012e-07 -1.447583846625e-07 0.000000000000e+00 -1.752372053391e-07 -1.438136157240e-07 0.000000000000e+00 -1.741285839450e-07 -1.429038144169e-07 0.000000000000e+00 -1.730611861045e-07 -1.420278442093e-07 0.000000000000e+00 -1.720336815396e-07 -1.411846133645e-07 0.000000000000e+00 -1.710447914860e-07 -1.403730724130e-07 0.000000000000e+00 -1.700932856505e-07 -1.395922116527e-07 0.000000000000e+00 -1.691779791309e-07 -1.388410587302e-07 0.000000000000e+00 -1.682977291905e-07 -1.381186763623e-07 0.000000000000e+00 -1.674514314756e-07 -1.374241605472e-07 0.000000000000e+00 -1.666380145443e-07 -1.367566406128e-07 0.000000000000e+00 -1.658564289802e-07 -1.361152858267e-07 0.000000000000e+00 -1.651056188362e-07 -1.354993344046e-07 0.000000000000e+00 -1.643844349406e-07 -1.349081978103e-07 0.000000000000e+00 -1.636913574734e-07 -1.343418144429e-07 0.000000000000e+00 -1.630235958397e-07 -1.338018208180e-07 0.000000000000e+00 -1.828903467166e-07 -1.828707813271e-07 0.000000000000e+00 -1.810466262069e-07 -1.810424196771e-07 0.000000000000e+00 -1.792761882627e-07 -1.792753037841e-07 0.000000000000e+00 -1.775713830793e-07 -1.775712612951e-07 0.000000000000e+00 -1.759286650168e-07 -1.759287470238e-07 0.000000000000e+00 -1.743454693218e-07 -1.743456265819e-07 0.000000000000e+00 -1.728195429713e-07 -1.728197421327e-07 0.000000000000e+00 -1.713487904175e-07 -1.713490203565e-07 0.000000000000e+00 -1.699312310121e-07 -1.699314864947e-07 0.000000000000e+00 -1.685649824033e-07 -1.685652602059e-07 0.000000000000e+00 -1.672482509885e-07 -1.672485488340e-07 0.000000000000e+00 -1.659793248820e-07 -1.659796411022e-07 0.000000000000e+00 -1.647565682079e-07 -1.647569015529e-07 0.000000000000e+00 -1.635784161859e-07 -1.635787657209e-07 0.000000000000e+00 -1.624433708010e-07 -1.624437358451e-07 0.000000000000e+00 -1.613499969134e-07 -1.613503769815e-07 0.000000000000e+00 -1.602969187103e-07 -1.602973134491e-07 0.000000000000e+00 -1.592828163895e-07 -1.592832255590e-07 0.000000000000e+00 -1.583064230721e-07 -1.583068464939e-07 0.000000000000e+00 -1.573665218483e-07 -1.573669593631e-07 0.000000000000e+00 -1.564619429279e-07 -1.564623943634e-07 0.000000000000e+00 -1.555915608360e-07 -1.555920260078e-07 0.000000000000e+00 -1.547542915849e-07 -1.547547704189e-07 0.000000000000e+00 -1.539490896235e-07 -1.539495827800e-07 0.000000000000e+00 -1.531749441038e-07 -1.531754553262e-07 0.000000000000e+00 -1.524308728896e-07 -1.524314174145e-07 0.000000000000e+00 -1.517159092790e-07 -1.517165428785e-07 0.000000000000e+00 -1.510290646445e-07 -1.510299824592e-07 0.000000000000e+00 -1.503692115072e-07 -1.503710805592e-07 0.000000000000e+00 -1.497347046717e-07 -1.497397717222e-07 0.000000000000e+00 -1.491221453869e-07 -1.491378957186e-07 0.000000000000e+00 -1.640871576007e-07 -1.999147879244e-07 0.000000000000e+00 -1.624296702324e-07 -1.979159805293e-07 0.000000000000e+00 -1.608405886338e-07 -1.959841640386e-07 0.000000000000e+00 -1.593109479966e-07 -1.941213040406e-07 0.000000000000e+00 -1.578371283806e-07 -1.923257045838e-07 0.000000000000e+00 -1.564167357515e-07 -1.905950317814e-07 0.000000000000e+00 -1.550477288736e-07 -1.889269272804e-07 0.000000000000e+00 -1.537282234497e-07 -1.873191251841e-07 0.000000000000e+00 -1.524564416316e-07 -1.857694672014e-07 0.000000000000e+00 -1.512306944704e-07 -1.842758980979e-07 0.000000000000e+00 -1.500493727676e-07 -1.828364584021e-07 0.000000000000e+00 -1.489109406675e-07 -1.814492775176e-07 0.000000000000e+00 -1.478139304932e-07 -1.801125676805e-07 0.000000000000e+00 -1.467569383463e-07 -1.788246186958e-07 0.000000000000e+00 -1.457386202242e-07 -1.775837932554e-07 0.000000000000e+00 -1.447576885302e-07 -1.763885226965e-07 0.000000000000e+00 -1.438129088794e-07 -1.752373031377e-07 0.000000000000e+00 -1.429030971466e-07 -1.741286918731e-07 0.000000000000e+00 -1.420271166758e-07 -1.730613039904e-07 0.000000000000e+00 -1.411838756354e-07 -1.720338091411e-07 0.000000000000e+00 -1.403723244551e-07 -1.710449284273e-07 0.000000000000e+00 -1.395914533058e-07 -1.700934313653e-07 0.000000000000e+00 -1.388402895154e-07 -1.691781329368e-07 0.000000000000e+00 -1.381178947360e-07 -1.682978907695e-07 0.000000000000e+00 -1.374233612025e-07 -1.674516029424e-07 0.000000000000e+00 -1.367558050747e-07 -1.666382080483e-07 0.000000000000e+00 -1.361143501052e-07 -1.658566932518e-07 0.000000000000e+00 -1.354980792066e-07 -1.651061298804e-07 0.000000000000e+00 -1.349058794567e-07 -1.643858018209e-07 0.000000000000e+00 -1.343359351286e-07 -1.636956426020e-07 0.000000000000e+00 -1.337840657224e-07 -1.630376894065e-07 0.000000000000e+00 -1.437046952003e-07 -2.150336675860e-07 0.000000000000e+00 -1.422485678471e-07 -2.128836372026e-07 0.000000000000e+00 -1.408559825074e-07 -2.108057269032e-07 0.000000000000e+00 -1.395162099691e-07 -2.088019953673e-07 0.000000000000e+00 -1.382254832465e-07 -2.068706070596e-07 0.000000000000e+00 -1.369815797098e-07 -2.050090507689e-07 0.000000000000e+00 -1.357826847446e-07 -2.032147908535e-07 0.000000000000e+00 -1.346271424099e-07 -2.014853911577e-07 0.000000000000e+00 -1.335133945821e-07 -1.998185310093e-07 0.000000000000e+00 -1.324399619480e-07 -1.982120003584e-07 0.000000000000e+00 -1.314054352125e-07 -1.966636919702e-07 0.000000000000e+00 -1.304084693301e-07 -1.951715940688e-07 0.000000000000e+00 -1.294477789504e-07 -1.937337838883e-07 0.000000000000e+00 -1.285221345693e-07 -1.923484220263e-07 0.000000000000e+00 -1.276303591385e-07 -1.910137474205e-07 0.000000000000e+00 -1.267713249866e-07 -1.897280728237e-07 0.000000000000e+00 -1.259439510446e-07 -1.884897806297e-07 0.000000000000e+00 -1.251472002543e-07 -1.872973190034e-07 0.000000000000e+00 -1.243800771140e-07 -1.861491982510e-07 0.000000000000e+00 -1.236416253648e-07 -1.850439873401e-07 0.000000000000e+00 -1.229309257534e-07 -1.839803105348e-07 0.000000000000e+00 -1.222470937894e-07 -1.829568441387e-07 0.000000000000e+00 -1.215892774493e-07 -1.819723132920e-07 0.000000000000e+00 -1.209566545488e-07 -1.810254889285e-07 0.000000000000e+00 -1.203484289421e-07 -1.801151854086e-07 0.000000000000e+00 -1.197638229314e-07 -1.792402605744e-07 0.000000000000e+00 -1.192020570000e-07 -1.783996244293e-07 0.000000000000e+00 -1.186622871620e-07 -1.775922775975e-07 0.000000000000e+00 -1.181434010651e-07 -1.768174505471e-07 0.000000000000e+00 -1.176433450994e-07 -1.760750800639e-07 0.000000000000e+00 -1.171569056516e-07 -1.753674023833e-07 0.000000000000e+00 -1.219397237935e-07 -2.280819274712e-07 0.000000000000e+00 -1.206977220113e-07 -2.258013340154e-07 0.000000000000e+00 -1.195148059866e-07 -2.235973509340e-07 0.000000000000e+00 -1.183777649934e-07 -2.214720600081e-07 0.000000000000e+00 -1.172825631639e-07 -2.194234941314e-07 0.000000000000e+00 -1.162271391086e-07 -2.174489887079e-07 0.000000000000e+00 -1.152099152056e-07 -2.155458563986e-07 0.000000000000e+00 -1.142294780048e-07 -2.137115152307e-07 0.000000000000e+00 -1.132845036751e-07 -2.119435051848e-07 0.000000000000e+00 -1.123737367448e-07 -2.102394831540e-07 0.000000000000e+00 -1.114959814320e-07 -2.085972147756e-07 0.000000000000e+00 -1.106500964860e-07 -2.070145667130e-07 0.000000000000e+00 -1.098349912773e-07 -2.054894998799e-07 0.000000000000e+00 -1.090496225295e-07 -2.040200634917e-07 0.000000000000e+00 -1.082929914607e-07 -2.026043897669e-07 0.000000000000e+00 -1.075641411827e-07 -2.012406891440e-07 0.000000000000e+00 -1.068621543329e-07 -1.999272458791e-07 0.000000000000e+00 -1.061861508827e-07 -1.986624139448e-07 0.000000000000e+00 -1.055352860579e-07 -1.974446131663e-07 0.000000000000e+00 -1.049087483658e-07 -1.962723255278e-07 0.000000000000e+00 -1.043057576864e-07 -1.951440916026e-07 0.000000000000e+00 -1.037255633664e-07 -1.940585070656e-07 0.000000000000e+00 -1.031674421988e-07 -1.930142192883e-07 0.000000000000e+00 -1.026306959509e-07 -1.920099241304e-07 0.000000000000e+00 -1.021146473890e-07 -1.910443634204e-07 0.000000000000e+00 -1.016186313645e-07 -1.901163249592e-07 0.000000000000e+00 -1.011419693423e-07 -1.892246516040e-07 0.000000000000e+00 -1.006838881615e-07 -1.883682820290e-07 0.000000000000e+00 -1.002432509001e-07 -1.875464003708e-07 0.000000000000e+00 -9.981765843728e-08 -1.867589543521e-07 0.000000000000e+00 -9.940046455405e-08 -1.860084004359e-07 0.000000000000e+00 -9.900277771870e-08 -2.389340514190e-07 0.000000000000e+00 -9.798475143444e-08 -2.365447698410e-07 0.000000000000e+00 -9.702252226569e-08 -2.342359708762e-07 0.000000000000e+00 -9.609910541617e-08 -2.320096304013e-07 0.000000000000e+00 -9.520997522210e-08 -2.298636466216e-07 0.000000000000e+00 -9.435320829529e-08 -2.277952273243e-07 0.000000000000e+00 -9.352747082553e-08 -2.258015629137e-07 0.000000000000e+00 -9.273160227193e-08 -2.238799531949e-07 0.000000000000e+00 -9.196452414067e-08 -2.220278241239e-07 0.000000000000e+00 -9.122521613514e-08 -2.202427230682e-07 0.000000000000e+00 -9.051270731655e-08 -2.185223106806e-07 0.000000000000e+00 -8.982607126219e-08 -2.168643530547e-07 0.000000000000e+00 -8.916442265845e-08 -2.152667147523e-07 0.000000000000e+00 -8.852691457790e-08 -2.137273526318e-07 0.000000000000e+00 -8.791273614747e-08 -2.122443103370e-07 0.000000000000e+00 -8.732111045987e-08 -2.108157133112e-07 0.000000000000e+00 -8.675129267350e-08 -2.094397641985e-07 0.000000000000e+00 -8.620256824632e-08 -2.081147385571e-07 0.000000000000e+00 -8.567425125641e-08 -2.068389808149e-07 0.000000000000e+00 -8.516568280591e-08 -2.056109003995e-07 0.000000000000e+00 -8.467622944482e-08 -2.044289680146e-07 0.000000000000e+00 -8.420528153090e-08 -2.032917120163e-07 0.000000000000e+00 -8.375225140418e-08 -2.021977148680e-07 0.000000000000e+00 -8.331657095036e-08 -2.011456097571e-07 0.000000000000e+00 -8.289768728520e-08 -2.001340777695e-07 0.000000000000e+00 -8.249505225637e-08 -1.991618473671e-07 0.000000000000e+00 -8.210809052601e-08 -1.982277030163e-07 0.000000000000e+00 -8.173609302960e-08 -1.973305278212e-07 0.000000000000e+00 -8.137785325003e-08 -1.964694665448e-07 0.000000000000e+00 -8.103043286615e-08 -1.956444991478e-07 0.000000000000e+00 -8.068503718622e-08 -1.948583732535e-07 0.000000000000e+00 -7.511693562549e-08 -2.474856240440e-07 0.000000000000e+00 -7.432849602300e-08 -2.450104780886e-07 0.000000000000e+00 -7.359553594653e-08 -2.426191946971e-07 0.000000000000e+00 -7.289458484028e-08 -2.403133804151e-07 0.000000000000e+00 -7.222010434174e-08 -2.380907488508e-07 0.000000000000e+00 -7.157025860914e-08 -2.359484010860e-07 0.000000000000e+00 -7.094397724308e-08 -2.338834432443e-07 0.000000000000e+00 -7.034036903747e-08 -2.318930939532e-07 0.000000000000e+00 -6.975860996871e-08 -2.299746972301e-07 0.000000000000e+00 -6.919792128830e-08 -2.281257185013e-07 0.000000000000e+00 -6.865756320982e-08 -2.263437378615e-07 0.000000000000e+00 -6.813683115629e-08 -2.246264431709e-07 0.000000000000e+00 -6.763505274305e-08 -2.229716235168e-07 0.000000000000e+00 -6.715158529071e-08 -2.213771631606e-07 0.000000000000e+00 -6.668581374810e-08 -2.198410359942e-07 0.000000000000e+00 -6.623714894585e-08 -2.183613004394e-07 0.000000000000e+00 -6.580502606219e-08 -2.169360947265e-07 0.000000000000e+00 -6.538890319975e-08 -2.155636325091e-07 0.000000000000e+00 -6.498826003399e-08 -2.142421987208e-07 0.000000000000e+00 -6.460259646155e-08 -2.129701456100e-07 0.000000000000e+00 -6.423143119660e-08 -2.117458888876e-07 0.000000000000e+00 -6.387430030237e-08 -2.105679038488e-07 0.000000000000e+00 -6.353075562089e-08 -2.094347213261e-07 0.000000000000e+00 -6.320036285720e-08 -2.083449233775e-07 0.000000000000e+00 -6.288269806681e-08 -2.072971389783e-07 0.000000000000e+00 -6.257733684869e-08 -2.062900418102e-07 0.000000000000e+00 -6.228381393618e-08 -2.053223588981e-07 0.000000000000e+00 -6.200147309428e-08 -2.043929211377e-07 0.000000000000e+00 -6.172893453516e-08 -2.035008583471e-07 0.000000000000e+00 -6.146228414667e-08 -2.026462645117e-07 0.000000000000e+00 -6.118911915661e-08 -2.018323410817e-07 0.000000000000e+00 -5.051913051955e-08 -2.536537380049e-07 0.000000000000e+00 -4.995710960938e-08 -2.511162890191e-07 0.000000000000e+00 -4.945831715676e-08 -2.486657037301e-07 0.000000000000e+00 -4.898660385588e-08 -2.463030140266e-07 0.000000000000e+00 -4.853359962154e-08 -2.440255456209e-07 0.000000000000e+00 -4.809716765236e-08 -2.418302193169e-07 0.000000000000e+00 -4.767649973349e-08 -2.397140688468e-07 0.000000000000e+00 -4.727103767081e-08 -2.376742786630e-07 0.000000000000e+00 -4.688026111129e-08 -2.357081641610e-07 0.000000000000e+00 -4.650365953570e-08 -2.338131565635e-07 0.000000000000e+00 -4.614073605991e-08 -2.319867946615e-07 0.000000000000e+00 -4.579101247518e-08 -2.302267197263e-07 0.000000000000e+00 -4.545403142771e-08 -2.285306714001e-07 0.000000000000e+00 -4.512935648144e-08 -2.268964836873e-07 0.000000000000e+00 -4.481657109234e-08 -2.253220808064e-07 0.000000000000e+00 -4.451527715360e-08 -2.238054729075e-07 0.000000000000e+00 -4.422509342844e-08 -2.223447517005e-07 0.000000000000e+00 -4.394565407082e-08 -2.209380859865e-07 0.000000000000e+00 -4.367660736245e-08 -2.195837170812e-07 0.000000000000e+00 -4.341761473825e-08 -2.182799540850e-07 0.000000000000e+00 -4.316835031404e-08 -2.170251688732e-07 0.000000000000e+00 -4.292850117978e-08 -2.158177907382e-07 0.000000000000e+00 -4.269776859938e-08 -2.146563007403e-07 0.000000000000e+00 -4.247586965326e-08 -2.135392262032e-07 0.000000000000e+00 -4.226253605806e-08 -2.124651370933e-07 0.000000000000e+00 -4.205749708638e-08 -2.114326495042e-07 0.000000000000e+00 -4.186040215661e-08 -2.104404509364e-07 0.000000000000e+00 -4.167054149584e-08 -2.094873878804e-07 0.000000000000e+00 -4.148592852744e-08 -2.085727264904e-07 0.000000000000e+00 -4.130042443391e-08 -2.076968899717e-07 0.000000000000e+00 -4.109495809553e-08 -2.068635097091e-07 0.000000000000e+00 -2.547339277681e-08 -2.573789343224e-07 0.000000000000e+00 -2.511022157787e-08 -2.548058509134e-07 0.000000000000e+00 -2.483808124720e-08 -2.523174884936e-07 0.000000000000e+00 -2.459771190177e-08 -2.499191499533e-07 0.000000000000e+00 -2.437195337637e-08 -2.476084649848e-07 0.000000000000e+00 -2.415555486262e-08 -2.453818778471e-07 0.000000000000e+00 -2.394681910067e-08 -2.432359527088e-07 0.000000000000e+00 -2.374514948371e-08 -2.411675506586e-07 0.000000000000e+00 -2.355029039555e-08 -2.391737919831e-07 0.000000000000e+00 -2.336208331161e-08 -2.372519988314e-07 0.000000000000e+00 -2.318038871256e-08 -2.353996519515e-07 0.000000000000e+00 -2.300506339101e-08 -2.336143618732e-07 0.000000000000e+00 -2.283595643170e-08 -2.318938500627e-07 0.000000000000e+00 -2.267291111972e-08 -2.302359363014e-07 0.000000000000e+00 -2.251576835121e-08 -2.286385298437e-07 0.000000000000e+00 -2.236437011815e-08 -2.270996228598e-07 0.000000000000e+00 -2.221856263010e-08 -2.256172853057e-07 0.000000000000e+00 -2.207819901569e-08 -2.241896607666e-07 0.000000000000e+00 -2.194314165406e-08 -2.228149630891e-07 0.000000000000e+00 -2.181326403591e-08 -2.214914738111e-07 0.000000000000e+00 -2.168845176368e-08 -2.202175406125e-07 0.000000000000e+00 -2.156860163137e-08 -2.189915772978e-07 0.000000000000e+00 -2.145361625070e-08 -2.178120662050e-07 0.000000000000e+00 -2.134338813847e-08 -2.166775645856e-07 0.000000000000e+00 -2.123775882648e-08 -2.155867177126e-07 0.000000000000e+00 -2.113641768449e-08 -2.145382833828e-07 0.000000000000e+00 -2.103865169014e-08 -2.135311756017e-07 0.000000000000e+00 -2.094271685108e-08 -2.125645398291e-07 0.000000000000e+00 -2.084422364633e-08 -2.116378764790e-07 0.000000000000e+00 -2.073189175859e-08 -2.107512246517e-07 0.000000000000e+00 -2.057614559264e-08 -2.099053698245e-07 0.000000000000e+00 0.000000000000e+00 -2.587799379777e-07 0.000000000000e+00 0.000000000000e+00 -2.562670918392e-07 0.000000000000e+00 0.000000000000e+00 -2.537583587598e-07 0.000000000000e+00 0.000000000000e+00 -2.513189196932e-07 0.000000000000e+00 0.000000000000e+00 -2.489651447889e-07 0.000000000000e+00 0.000000000000e+00 -2.466991828875e-07 0.000000000000e+00 0.000000000000e+00 -2.445189441066e-07 0.000000000000e+00 0.000000000000e+00 -2.424211649231e-07 0.000000000000e+00 0.000000000000e+00 -2.404023920307e-07 0.000000000000e+00 0.000000000000e+00 -2.384592979123e-07 0.000000000000e+00 0.000000000000e+00 -2.365887705966e-07 0.000000000000e+00 0.000000000000e+00 -2.347879256059e-07 0.000000000000e+00 0.000000000000e+00 -2.330540923733e-07 0.000000000000e+00 0.000000000000e+00 -2.313847941758e-07 0.000000000000e+00 0.000000000000e+00 -2.297777284386e-07 0.000000000000e+00 0.000000000000e+00 -2.282307496943e-07 0.000000000000e+00 0.000000000000e+00 -2.267418556445e-07 0.000000000000e+00 0.000000000000e+00 -2.253091760127e-07 0.000000000000e+00 0.000000000000e+00 -2.239309637173e-07 0.000000000000e+00 0.000000000000e+00 -2.226055875538e-07 0.000000000000e+00 0.000000000000e+00 -2.213315251308e-07 0.000000000000e+00 0.000000000000e+00 -2.201073541420e-07 0.000000000000e+00 0.000000000000e+00 -2.189317383689e-07 0.000000000000e+00 0.000000000000e+00 -2.178034009851e-07 0.000000000000e+00 0.000000000000e+00 -2.167210696055e-07 0.000000000000e+00 0.000000000000e+00 -2.156833583229e-07 0.000000000000e+00 0.000000000000e+00 -2.146885053475e-07 0.000000000000e+00 0.000000000000e+00 -2.137337684598e-07 0.000000000000e+00 0.000000000000e+00 -2.128139792448e-07 0.000000000000e+00 0.000000000000e+00 -2.119179567405e-07 0.000000000000e+00 0.000000000000e+00 -2.110193110592e-07 0.000000000000e+00 
        </DataArray>
        <DataArray type="Float64" Name="NORMSTRESS_1" NumberOfComponents="3" format="ascii">
          9.999996302985e-01 8.598854040325e-04 3.010389685964e-09 9.999998234335e-01 5.942498543803e-04 2.140628797151e-09 9.999999022784e-01 4.420896308941e-04 1.638097873497e-09 9.999999420918e-01 3.403181398206e-04 1.296732385966e-09 9.999999636721e-01 2.695475233190e-04 1.055892489194e-09 9.999999758913e-01 2.195846501367e-04 8.840816941682e-10 9.999999830638e-01 1.840447357038e-04 7.613947167637e-10 9.999999874197e-01 1.586210429662e-04 6.741179593789e-10 9.999999901547e-01 1.403229068240e-04 6.124734441940e-10 9.999999919301e-01 1.270428300964e-04 5.693634243575e-10 9.999999931226e-01 1.172810148702e-04 5.395689713875e-10 9.999999939550e-01 1.099540925459e-04 5.191723097591e-10 9.999999945646e-01 1.042632712969e-04 5.051439535441e-10 9.999999950401e-01 9.959772178622e-05 4.950185052616e-10 9.999999954430e-01 9.546687112495e-05 4.866526586349e-10 9.999999958191e-01 9.144275668883e-05 4.779889231053e-10 9.999999962055e-01 8.711534257145e-05 4.668469347466e-10 9.999999966338e-01 8.205134912104e-05 4.507000334746e-10 9.999999971307e-01 7.575403554896e-05 4.264240214491e-10 9.999999977143e-01 6.761273493980e-05 3.899525126763e-10 9.999999983838e-01 5.685383248015e-05 3.358959751659e-10 9.999999990981e-01 4.247192799576e-05 2.569948761577e-10 9.999999997322e-01 2.314383308533e-05 1.434008692363e-10 9.999999999959e-01 -2.874963563499e-06 -1.823728747948e-11 9.999999992823e-01 -3.788673790517e-05 -2.460053527316e-10 9.999999963957e-01 -8.490302953812e-05 -5.641939676206e-10 9.999999890811e-01 -1.477762991034e-04 -1.004792966807e-09 9.999999732873e-01 -2.311391482163e-04 -1.607794280744e-09 9.999999423581e-01 -3.395347466871e-04 -2.415711721038e-09 9.999998878261e-01 -4.736537402260e-04 -3.446244859722e-09 9.999998130569e-01 -6.114623208164e-04 -4.571176049058e-09 9.951911651233e-01 9.795174761275e-02 3.379956629059e-07 9.951859358681e-01 9.800486238064e-02 3.479508093409e-07 9.951850241738e-01 9.801411969700e-02 3.579382999892e-07 9.951848187922e-01 9.801620501431e-02 3.680852407309e-07 9.951847705910e-01 9.801669441279e-02 3.784133946596e-07 9.951847581354e-01 9.801682087734e-02 3.889295331479e-07 9.951847540547e-01 9.801686230915e-02 3.996369036189e-07 9.951847522717e-01 9.801688041178e-02 4.105378366319e-07 9.951847512950e-01 9.801689032832e-02 4.216343909605e-07 9.951847504441e-01 9.801689896807e-02 4.329285229921e-07 9.951847498135e-01 9.801690537033e-02 4.444221013489e-07 9.951847494276e-01 9.801690928913e-02 4.561169559601e-07 9.951847490876e-01 9.801691274029e-02 4.680148940239e-07 9.951847486815e-01 9.801691686380e-02 4.801176894239e-07 9.951847485067e-01 9.801691863912e-02 4.924270673438e-07 9.951847483653e-01 9.801692007391e-02 5.049447480451e-07 9.951847481410e-01 9.801692235161e-02 5.176724126967e-07 9.951847479291e-01 9.801692450243e-02 5.306116879570e-07 9.951847479133e-01 9.801692466338e-02 5.437641386086e-07 9.951847476923e-01 9.801692690739e-02 5.571312873958e-07 9.951847474836e-01 9.801692902579e-02 5.707145209629e-07 9.951847473557e-01 9.801693032412e-02 5.845150988232e-07 9.951847472369e-01 9.801693153038e-02 5.985341042567e-07 9.951847477722e-01 9.801692609551e-02 6.127723281523e-07 9.951847509583e-01 9.801689374679e-02 6.272301422797e-07 9.951847638326e-01 9.801676303078e-02 6.419071522975e-07 9.951848116792e-01 9.801627723331e-02 6.568011961903e-07 9.951849814694e-01 9.801455329301e-02 6.719053051311e-07 9.951855712816e-01 9.800856448510e-02 6.871974660341e-07 9.951875920636e-01 9.798804315965e-02 7.026060339784e-07 9.951951322570e-01 9.791143309835e-02 7.284454580298e-07 9.808111584945e-01 1.949601789396e-01 6.564629825998e-07 9.807901400611e-01 1.950658892744e-01 6.757597820504e-07 9.807864757196e-01 1.950843126573e-01 6.951420747953e-07 9.807856502536e-01 1.950884626420e-01 7.148397718469e-07 9.807854558650e-01 1.950894399067e-01 7.348919563468e-07 9.807854051277e-01 1.950896949815e-01 7.553106937146e-07 9.807853889321e-01 1.950897764021e-01 7.761017775000e-07 9.807853813561e-01 1.950898144896e-01 7.972694703010e-07 9.807853765749e-01 1.950898385262e-01 8.188175712750e-07 9.807853734807e-01 1.950898540815e-01 8.407497027838e-07 9.807853709739e-01 1.950898666841e-01 8.630694230998e-07 9.807853686773e-01 1.950898782298e-01 8.857802212685e-07 9.807853671530e-01 1.950898858932e-01 9.088855148412e-07 9.807853660332e-01 1.950898915227e-01 9.323886989602e-07 9.807853648450e-01 1.950898974959e-01 9.562931205057e-07 9.807853639575e-01 1.950899019576e-01 9.806020539142e-07 9.807853635860e-01 1.950899038249e-01 1.005318699858e-06 9.807853629209e-01 1.950899071687e-01 1.030446201983e-06 9.807853622750e-01 1.950899104158e-01 1.055987543753e-06 9.807853619417e-01 1.950899120910e-01 1.081945556427e-06 9.807853612330e-01 1.950899156539e-01 1.108322863529e-06 9.807853605870e-01 1.950899189016e-01 1.135121768361e-06 9.807853605374e-01 1.950899191505e-01 1.162344150292e-06 9.807853629616e-01 1.950899069631e-01 1.189991315320e-06 9.807853759073e-01 1.950898418803e-01 1.218063631673e-06 9.807854283574e-01 1.950895781951e-01 1.246559889238e-06 9.807856208738e-01 1.950886103430e-01 1.275475477027e-06 9.807863034504e-01 1.950851787358e-01 1.304796733389e-06 9.807886745899e-01 1.950732575070e-01 1.334482394007e-06 9.807967971069e-01 1.950324146980e-01 1.364401167341e-06 9.808271056049e-01 1.948799345972e-01 1.428912137458e-06 9.569990463384e-01 2.900910638170e-01 9.431793145924e-07 9.569513594246e-01 2.902483345248e-01 9.708323912345e-07 9.569430464638e-01 2.902757410181e-01 9.986534871865e-07 9.569411722116e-01 2.902819197355e-01 1.026938246166e-06 9.569407298425e-01 2.902833780418e-01 1.055736542659e-06 9.569406136298e-01 2.902837611453e-01 1.085063769007e-06 9.569405749335e-01 2.902838887101e-01 1.114927436720e-06 9.569405567305e-01 2.902839487175e-01 1.145333184256e-06 9.569405454629e-01 2.902839858619e-01 1.176286164893e-06 9.569405369454e-01 2.902840139402e-01 1.207791395046e-06 9.569405303740e-01 2.902840356029e-01 1.239853806659e-06 9.569405252207e-01 2.902840525910e-01 1.272478284273e-06 9.569405211423e-01 2.902840660356e-01 1.305669675801e-06 9.569405176912e-01 2.902840774122e-01 1.339432776810e-06 9.569405152600e-01 2.902840854268e-01 1.373772311726e-06 9.569405133538e-01 2.902840917105e-01 1.408692933305e-06 9.569405117657e-01 2.902840969455e-01 1.444199199085e-06 9.569405106698e-01 2.902841005581e-01 1.480295501531e-06 9.569405097814e-01 2.902841034867e-01 1.516986061903e-06 9.569405089138e-01 2.902841063465e-01 1.554274823328e-06 9.569405079669e-01 2.902841094678e-01 1.592165381866e-06 9.569405074156e-01 2.902841112849e-01 1.630660817981e-06 9.569405077434e-01 2.902841102043e-01 1.669763566480e-06 9.569405144482e-01 2.902840881012e-01 1.709475059374e-06 9.569405451624e-01 2.902839868493e-01 1.749795343226e-06 9.569406652557e-01 2.902835909534e-01 1.790722048654e-06 9.569411037087e-01 2.902821455573e-01 1.832247989342e-06 9.569426539316e-01 2.902770350592e-01 1.874353802720e-06 9.569480339086e-01 2.902592985500e-01 1.916984160665e-06 9.569664622657e-01 2.901985356524e-01 1.959967913293e-06 9.570352346979e-01 2.899716529982e-01 2.074497026973e-06 9.239851882009e-01 3.824282573032e-01 1.187144779728e-06 9.238993668891e-01 3.826355444289e-01 1.221832482096e-06 9.238844080570e-01 3.826716615422e-01 1.256809457483e-06 9.238810323072e-01 3.826798115152e-01 1.292387014512e-06 9.238802324985e-01 3.826817424399e-01 1.328617309738e-06 9.238800195926e-01 3.826822564423e-01 1.365516578075e-06 9.238799465772e-01 3.826824327175e-01 1.403093045844e-06 9.238799111973e-01 3.826825181321e-01 1.441353149264e-06 9.238798882708e-01 3.826825734817e-01 1.480302962542e-06 9.238798706198e-01 3.826826160948e-01 1.519948497968e-06 9.238798573374e-01 3.826826481614e-01 1.560295746833e-06 9.238798465039e-01 3.826826743155e-01 1.601350704378e-06 9.238798378647e-01 3.826826951724e-01 1.643119343260e-06 9.238798308883e-01 3.826827120148e-01 1.685607598275e-06 9.238798259519e-01 3.826827239321e-01 1.728821324046e-06 9.238798218727e-01 3.826827337800e-01 1.772766303104e-06 9.238798191051e-01 3.826827404613e-01 1.817448162992e-06 9.238798173331e-01 3.826827447391e-01 1.862872340719e-06 9.238798163125e-01 3.826827472029e-01 1.909044003435e-06 9.238798157577e-01 3.826827485421e-01 1.955967957740e-06 9.238798154729e-01 3.826827492294e-01 2.003648489459e-06 9.238798158935e-01 3.826827482137e-01 2.052089187230e-06 9.238798189635e-01 3.826827408018e-01 2.101292683541e-06 9.238798332499e-01 3.826827063109e-01 2.151260264517e-06 9.238798915676e-01 3.826825655190e-01 2.201991261697e-06 9.238801112645e-01 3.826820351215e-01 2.253481895466e-06 9.238809040213e-01 3.826801212232e-01 2.305722548764e-06 9.238836971010e-01 3.826733779942e-01 2.358689889685e-06 9.238933810216e-01 3.826499973848e-01 2.412322011332e-06 9.239265455411e-01 3.825699131379e-01 2.466435776670e-06 9.240503361767e-01 3.822708152669e-01 2.640407418980e-06 8.820891419838e-01 4.710825252462e-01 1.379006407101e-06 8.819527723127e-01 4.713377848295e-01 1.419118106550e-06 8.819290074610e-01 4.713822501927e-01 1.459689857736e-06 8.819236383735e-01 4.713922953081e-01 1.500985042353e-06 8.819223602687e-01 4.713946864949e-01 1.543047499263e-06 8.819220138815e-01 4.713953345427e-01 1.585891388611e-06 8.819218916427e-01 4.713955632361e-01 1.629524503705e-06 8.819218298986e-01 4.713956787513e-01 1.673953454313e-06 8.819217877642e-01 4.713957575794e-01 1.719184753443e-06 8.819217560943e-01 4.713958168295e-01 1.765224991508e-06 8.819217316894e-01 4.713958624878e-01 1.812080857350e-06 8.819217108581e-01 4.713959014603e-01 1.859759124119e-06 8.819216948373e-01 4.713959314330e-01 1.908266553229e-06 8.819216828061e-01 4.713959539417e-01 1.957609902166e-06 8.819216728382e-01 4.713959725902e-01 2.007795883533e-06 8.819216659010e-01 4.713959855686e-01 2.058831080689e-06 8.819216620181e-01 4.713959928328e-01 2.110721909341e-06 8.819216593140e-01 4.713959978916e-01 2.163474566856e-06 8.819216585332e-01 4.713959993520e-01 2.217094873318e-06 8.819216601192e-01 4.713959963846e-01 2.271588177970e-06 8.819216617236e-01 4.713959933828e-01 2.326959182255e-06 8.819216657520e-01 4.713959858459e-01 2.383211648688e-06 8.819216751620e-01 4.713959682407e-01 2.440348088083e-06 8.819217027784e-01 4.713959165735e-01 2.498369316992e-06 8.819218014965e-01 4.713957318843e-01 2.557273634996e-06 8.819221577726e-01 4.713950653358e-01 2.617055686479e-06 8.819234248900e-01 4.713926947069e-01 2.677703799566e-06 8.819278693685e-01 4.713843794862e-01 2.739193195210e-06 8.819432596960e-01 4.713555841071e-01 2.801465334380e-06 8.819959562503e-01 4.712569714603e-01 2.864361224015e-06 8.821927099115e-01 4.708885458039e-01 3.104914426469e-06 8.317168004680e-01 5.552001115067e-01 1.511419856591e-06 8.315159931752e-01 5.555008128629e-01 1.555112375332e-06 8.314810124562e-01 5.555531711027e-01 1.599498758225e-06 8.314730978065e-01 5.555650165565e-01 1.644715869637e-06 8.314712023715e-01 5.555678533032e-01 1.690786422453e-06 8.314706799112e-01 5.555686352244e-01 1.737719072349e-06 8.314704880241e-01 5.555689224046e-01 1.785519981959e-06 8.314703866695e-01 5.555690740928e-01 1.834195240299e-06 8.314703171744e-01 5.555691780997e-01 1.883751295720e-06 8.314702631602e-01 5.555692589377e-01 1.934194915308e-06 8.314702201822e-01 5.555693232587e-01 1.985533080595e-06 8.314701854208e-01 5.555693752828e-01 2.037772944287e-06 8.314701581731e-01 5.555694160617e-01 2.090921738016e-06 8.314701362819e-01 5.555694488241e-01 2.144986709796e-06 8.314701202888e-01 5.555694727594e-01 2.199975050314e-06 8.314701094037e-01 5.555694890499e-01 2.255893848472e-06 8.314701028233e-01 5.555694988978e-01 2.312749998325e-06 8.314701001781e-01 5.555695028565e-01 2.370550095601e-06 8.314701015491e-01 5.555695008044e-01 2.429300313970e-06 8.314701058092e-01 5.555694944284e-01 2.489006237697e-06 8.314701133479e-01 5.555694831456e-01 2.549672635183e-06 8.314701249826e-01 5.555694657328e-01 2.611303124899e-06 8.314701448490e-01 5.555694360003e-01 2.673899809942e-06 8.314701953586e-01 5.555693604067e-01 2.737462637894e-06 8.314703522365e-01 5.555691256216e-01 2.801988684951e-06 8.314708881601e-01 5.555683235517e-01 2.867470924029e-06 8.314727675765e-01 5.555655107817e-01 2.933896305310e-06 8.314793245547e-01 5.555556973239e-01 3.001241861851e-06 8.315019883953e-01 5.555217757075e-01 3.069465215678e-06 8.315795779045e-01 5.554056225879e-01 3.138476461125e-06 8.318694083918e-01 5.549714293277e-01 3.450189079645e-06 7.733568449612e-01 6.339709696423e-01 1.579335633950e-06 7.730754299381e-01 6.343141017063e-01 1.624595134690e-06 7.730264392549e-01 6.343738047950e-01 1.670864032439e-06 7.730153374512e-01 6.343873328356e-01 1.718055612347e-06 7.730126581371e-01 6.343905976263e-01 1.766156064421e-06 7.730119050673e-01 6.343915152498e-01 1.815164558013e-06 7.730116188337e-01 6.343918640277e-01 1.865084294203e-06 7.730114603257e-01 6.343920571709e-01 1.915920194973e-06 7.730113490578e-01 6.343921927515e-01 1.967678141501e-06 7.730112633955e-01 6.343922971314e-01 2.020364604853e-06 7.730111938253e-01 6.343923819030e-01 2.073986496050e-06 7.730111374542e-01 6.343924505912e-01 2.128550974926e-06 7.730110929919e-01 6.343925047687e-01 2.184065344663e-06 7.730110585494e-01 6.343925467369e-01 2.240536979654e-06 7.730110331251e-01 6.343925777163e-01 2.297973238554e-06 7.730110159320e-01 6.343925986660e-01 2.356381339603e-06 7.730110062254e-01 6.343926104933e-01 2.415768306502e-06 7.730110048823e-01 6.343926121297e-01 2.476140814012e-06 7.730110090519e-01 6.343926070487e-01 2.537505049807e-06 7.730110196233e-01 6.343925941672e-01 2.599866487650e-06 7.730110373573e-01 6.343925725580e-01 2.663229634946e-06 7.730110623490e-01 6.343925421052e-01 2.727597657232e-06 7.730111021135e-01 6.343924936516e-01 2.792971889008e-06 7.730111870346e-01 6.343923901743e-01 2.859351189662e-06 7.730114237865e-01 6.343921016903e-01 2.926731131453e-06 7.730121967600e-01 6.343911598149e-01 2.995103082424e-06 7.730148519292e-01 6.343879244497e-01 3.064453598699e-06 7.730240559987e-01 6.343767089336e-01 3.134765840679e-06 7.730558194146e-01 6.343380014306e-01 3.206029201053e-06 7.731645371008e-01 6.342054860682e-01 3.278278713775e-06 7.735709188200e-01 6.337097391887e-01 3.662989123498e-06 7.075766705484e-01 7.066365793625e-01 1.580200516040e-06 7.071949036535e-01 7.070186477342e-01 1.624904405009e-06 7.071285109467e-01 7.070850507567e-01 1.671043802297e-06 7.071134370273e-01 7.071001252811e-01 1.718185153284e-06 7.071097702158e-01 7.071037921425e-01 1.766259187294e-06 7.071087162527e-01 7.071048461128e-01 1.815250961174e-06 7.071082989616e-01 7.071052634058e-01 1.865159286520e-06 7.071080606004e-01 7.071055017677e-01 1.915987235407e-06 7.071078919804e-01 7.071056703882e-01 1.967739626119e-06 7.071077585574e-01 7.071058038114e-01 2.020422275316e-06 7.071076513378e-01 7.071059110312e-01 2.074041584653e-06 7.071075659542e-01 7.071059964148e-01 2.128604343293e-06 7.071074967860e-01 7.071060655830e-01 2.184117583932e-06 7.071074431096e-01 7.071061192594e-01 2.240588451355e-06 7.071074054975e-01 7.071061568713e-01 2.298024065671e-06 7.071073796202e-01 7.071061827485e-01 2.356431477113e-06 7.071073662049e-01 7.071061961636e-01 2.415817464462e-06 7.071073657775e-01 7.071061965908e-01 2.476188438810e-06 7.071073765270e-01 7.071061858410e-01 2.537550254341e-06 7.071073979144e-01 7.071061644534e-01 2.599907961395e-06 7.071074312392e-01 7.071061311283e-01 2.663265459253e-06 7.071074782159e-01 7.071060841513e-01 2.727625148109e-06 7.071075507907e-01 7.071060115760e-01 2.792987298471e-06 7.071076872886e-01 7.071058750775e-01 2.859349396040e-06 7.071080353550e-01 7.071055270098e-01 2.926705365773e-06 7.071091168381e-01 7.071044455209e-01 2.995045153226e-06 7.071127527371e-01 7.071008095789e-01 3.064356260230e-06 7.071252618359e-01 7.070883000473e-01 3.134633404940e-06 7.071683451326e-01 7.070452118727e-01 3.205917529806e-06 7.073157883793e-01 7.068977121894e-01 3.278438544282e-06 7.078675025828e-01 7.063452404974e-01 3.735170557987e-06 6.350180679353e-01 7.724972837450e-01 1.514070656905e-06 6.345104432495e-01 7.729142885242e-01 1.556040136376e-06 6.344223068512e-01 7.729866341451e-01 1.600031715649e-06 6.344022495091e-01 7.730030956051e-01 1.645098170893e-06 6.343973260110e-01 7.730071362848e-01 1.691090445506e-06 6.343958741610e-01 7.730083277977e-01 1.737973866801e-06 6.343952759460e-01 7.730088187428e-01 1.785741259306e-06 6.343949262101e-01 7.730091057649e-01 1.834393166035e-06 6.343946739785e-01 7.730093127668e-01 1.883932943700e-06 6.343944750566e-01 7.730094760182e-01 1.934365333113e-06 6.343943159141e-01 7.730096066233e-01 1.985695896541e-06 6.343941877361e-01 7.730097118164e-01 2.037930704051e-06 6.343940855083e-01 7.730097957126e-01 2.091076160436e-06 6.343940077420e-01 7.730098595338e-01 2.145138799749e-06 6.343939505021e-01 7.730099065093e-01 2.200125221858e-06 6.343939140854e-01 7.730099363956e-01 2.256041906809e-06 6.343938971710e-01 7.730099502768e-01 2.312895067439e-06 6.343938979052e-01 7.730099496740e-01 2.370690515506e-06 6.343939174781e-01 7.730099336108e-01 2.429433457110e-06 6.343939567495e-01 7.730099013813e-01 2.489128140713e-06 6.343940139329e-01 7.730098544518e-01 2.549777588380e-06 6.343940956856e-01 7.730097873588e-01 2.611383093047e-06 6.343942181115e-01 7.730096868860e-01 2.673943588979e-06 6.343944340538e-01 7.730095096660e-01 2.737454921338e-06 6.343949397968e-01 7.730090946117e-01 2.801909308101e-06 6.343964286217e-01 7.730078727567e-01 2.867295584050e-06 6.344013157728e-01 7.730038619160e-01 2.933604063347e-06 6.344179861376e-01 7.729901803103e-01 3.000848000126e-06 6.344752469776e-01 7.729431809411e-01 3.069145446499e-06 6.346711983259e-01 7.727822914675e-01 3.139013392089e-06 6.354056411029e-01 7.721785229085e-01 3.664005570913e-06 5.563932396759e-01 8.309191072788e-01 1.383643642325e-06 5.557245912266e-01 8.313664527175e-01 1.420666645554e-06 5.556088086598e-01 8.314438355881e-01 1.460556515224e-06 5.555823686553e-01 8.314615034005e-01 1.501600811385e-06 5.555758021962e-01 8.314658910693e-01 1.543536116296e-06 5.555738110462e-01 8.314672215289e-01 1.586301086164e-06 5.555729576936e-01 8.314677917255e-01 1.629880842005e-06 5.555724443724e-01 8.314681347179e-01 1.674272723945e-06 5.555720705147e-01 8.314683845228e-01 1.719478192928e-06 5.555717783883e-01 8.314685797162e-01 1.765500600090e-06 5.555715446911e-01 8.314687358682e-01 1.812344352101e-06 5.555713570730e-01 8.314688612309e-01 1.860014502158e-06 5.555712103274e-01 8.314689592833e-01 1.908516500263e-06 5.555710960220e-01 8.314690356598e-01 1.957856011493e-06 5.555710130697e-01 8.314690910868e-01 2.008038729538e-06 5.555709623322e-01 8.314691249885e-01 2.059070268182e-06 5.555709380522e-01 8.314691412117e-01 2.110955969840e-06 5.555709409796e-01 8.314691392556e-01 2.163700716555e-06 5.555709757293e-01 8.314691160364e-01 2.217308689001e-06 5.555710394618e-01 8.314690734514e-01 2.271783095131e-06 5.555711344742e-01 8.314690099659e-01 2.327125718330e-06 5.555712729997e-01 8.314689174057e-01 2.383336422154e-06 5.555714758438e-01 8.314687818691e-01 2.440412512436e-06 5.555718139380e-01 8.314685559607e-01 2.498348068391e-06 5.555725517219e-01 8.314680629866e-01 2.557133521240e-06 5.555745966687e-01 8.314666965848e-01 2.616757236364e-06 5.555811269212e-01 8.314623331227e-01 2.677214682791e-06 5.556031562907e-01 8.314476127288e-01 2.738546693391e-06 5.556785269945e-01 8.313972423754e-01 2.800983598518e-06 5.559364006277e-01 8.312248302649e-01 2.865463914269e-06 5.569056005980e-01 8.305757954640e-01 3.452296772020e-06 4.724824609259e-01 8.813400729094e-01 1.194245337592e-06 4.716005585884e-01 8.818122890602e-01 1.224015511479e-06 4.714485876681e-01 8.818935475352e-01 1.257972313236e-06 4.714136186565e-01 8.819122406133e-01 1.293201310419e-06 4.714047635701e-01 8.819169739163e-01 1.329262340823e-06 4.714019959964e-01 8.819184532420e-01 1.366058033197e-06 4.714007677006e-01 8.819191097880e-01 1.403565038058e-06 4.714000069425e-01 8.819195164257e-01 1.441777309043e-06 4.713994437091e-01 8.819198174826e-01 1.480694074385e-06 4.713990021812e-01 8.819200534857e-01 1.520316895554e-06 4.713986509033e-01 8.819202412487e-01 1.560648691640e-06 4.713983707832e-01 8.819203909766e-01 1.601693224414e-06 4.713981521755e-01 8.819205078253e-01 1.643454745604e-06 4.713979849219e-01 8.819205972244e-01 1.685937766712e-06 4.713978621912e-01 8.819206628255e-01 1.729146864327e-06 4.713977838197e-01 8.819207047160e-01 1.773086484870e-06 4.713977480166e-01 8.819207238531e-01 1.817760781655e-06 4.713977551934e-01 8.819207200169e-01 1.863173397874e-06 4.713978087803e-01 8.819206913740e-01 1.909327198659e-06 4.713979145235e-01 8.819206348527e-01 1.956223927730e-06 4.713980783279e-01 8.819205472971e-01 2.003863839236e-06 4.713983112820e-01 8.819204227799e-01 2.052245141850e-06 4.713986443306e-01 8.819202447607e-01 2.101363373423e-06 4.713991808966e-01 8.819199579584e-01 2.151210790185e-06 4.714002736015e-01 8.819193738906e-01 2.201776207503e-06 4.714031430688e-01 8.819178401074e-01 2.253047646748e-06 4.714119943979e-01 8.819131088336e-01 2.305027357165e-06 4.714412646813e-01 8.818974622654e-01 2.357795251619e-06 4.715405600661e-01 8.818443741425e-01 2.411751697567e-06 4.718800565702e-01 8.816627542350e-01 2.468492806987e-06 4.731625281587e-01 8.809751539838e-01 3.108288924396e-06 3.841366977772e-01 9.232762302907e-01 9.539070163968e-07 3.829568537321e-01 9.237662302654e-01 9.737182789332e-07 3.827559384457e-01 9.238494961754e-01 1.000023664134e-06 3.827087736730e-01 9.238690353901e-01 1.027874677285e-06 3.826960733974e-01 9.238742963223e-01 1.056488195394e-06 3.826918354714e-01 9.238760517853e-01 1.085702479435e-06 3.826899515556e-01 9.238768321465e-01 1.115487295940e-06 3.826888207073e-01 9.238773005677e-01 1.145837531519e-06 3.826879850416e-01 9.238776467170e-01 1.176752390536e-06 3.826873078759e-01 9.238779272118e-01 1.208232182501e-06 3.826867472702e-01 9.238781594248e-01 1.240278048770e-06 3.826862889942e-01 9.238783492507e-01 1.272891932857e-06 3.826859257368e-01 9.238784997180e-01 1.306076375182e-06 3.826856498363e-01 9.238786140005e-01 1.339834284636e-06 3.826854549400e-01 9.238786947297e-01 1.374168724087e-06 3.826853385801e-01 9.238787429278e-01 1.409082642020e-06 3.826852972955e-01 9.238787600285e-01 1.444578697895e-06 3.826853310640e-01 9.238787460410e-01 1.480659031504e-06 3.826854414278e-01 9.238787003265e-01 1.517324986778e-06 3.826856260283e-01 9.238786238619e-01 1.554576852111e-06 3.826858891841e-01 9.238785148583e-01 1.592413430262e-06 3.826862501818e-01 9.238783653269e-01 1.630831398358e-06 3.826867709453e-01 9.238781496175e-01 1.669824383993e-06 3.826876502235e-01 9.238777854043e-01 1.709381635535e-06 3.826894712344e-01 9.238770311049e-01 1.749486976742e-06 3.826939804176e-01 9.238751632926e-01 1.790122461319e-06 3.827067556632e-01 9.238698713382e-01 1.831294633447e-06 3.827465930397e-01 9.238533679719e-01 1.873149556305e-06 3.828787214773e-01 9.237986169270e-01 1.916403970864e-06 3.833308356923e-01 9.236111034432e-01 1.963837924197e-06 3.850578379611e-01 9.228924430386e-01 2.645394071904e-06 2.922950530362e-01 9.563281873761e-01 6.740349311071e-07 2.906618861426e-01 9.568258294714e-01 6.798812887328e-07 2.903956109094e-01 9.569066773537e-01 6.964917553470e-07 2.903319453041e-01 9.569259958510e-01 7.155793720144e-07 2.903108966638e-01 9.569323817688e-01 7.355166591086e-07 2.903012062385e-01 9.569353215635e-01 7.559073046425e-07 2.902960768347e-01 9.569368776329e-01 7.766729146379e-07 2.902933033902e-01 9.569377189797e-01 7.978102218498e-07 2.902917844899e-01 9.569381797467e-01 8.193287102956e-07 2.902908973810e-01 9.569384488550e-01 8.412366138526e-07 2.902903124172e-01 9.569386263058e-01 8.635391448463e-07 2.902898816607e-01 9.569387569770e-01 8.862393329264e-07 2.902895493271e-01 9.569388577912e-01 9.093390229236e-07 2.902893003891e-01 9.569389333070e-01 9.328395218126e-07 2.902891349738e-01 9.569389834860e-01 9.567419519874e-07 2.902890468651e-01 9.569390102139e-01 9.810473747876e-07 2.902890250565e-01 9.569390168296e-01 1.005756746146e-06 2.902890598061e-01 9.569390062882e-01 1.030870620275e-06 2.902891502126e-01 9.569389788632e-01 1.056388687082e-06 2.902893281915e-01 9.569389248729e-01 1.082308996576e-06 2.902896948229e-01 9.569388136545e-01 1.108626582784e-06 2.902904602019e-01 9.569385814745e-01 1.135331469437e-06 2.902919979345e-01 9.569381149969e-01 1.162405975847e-06 2.902949178299e-01 9.569372292270e-01 1.189821996088e-06 2.903002175795e-01 9.569356214876e-01 1.217541955051e-06 2.903099640679e-01 9.569326646956e-01 1.245536263111e-06 2.903303835753e-01 9.569264696785e-01 1.273858024978e-06 2.903845280910e-01 9.569100406223e-01 1.302900291653e-06 2.905600239196e-01 9.568567669709e-01 1.334210730273e-06 2.911783198732e-01 9.566687964149e-01 1.372965543141e-06 2.936043363684e-01 9.559270336492e-01 2.081767172534e-06 1.980707959423e-01 9.801877166108e-01 3.712908613731e-07 1.956005611402e-01 9.806836495433e-01 3.575816861765e-07 1.952531494250e-01 9.807528779665e-01 3.600741150875e-07 1.952002717442e-01 9.807634036356e-01 3.677246604263e-07 1.951817013182e-01 9.807670995045e-01 3.774252845461e-07 1.951603575132e-01 9.807713468771e-01 3.880137440341e-07 1.951380824307e-01 9.807757790571e-01 3.990321375532e-07 1.951191241703e-01 9.807795508588e-01 4.102967606989e-07 1.951051961896e-01 9.807823216288e-01 4.217363154351e-07 1.950961678081e-01 9.807841175847e-01 4.333268856349e-07 1.950911000511e-01 9.807851256420e-01 4.450643730276e-07 1.950888826432e-01 9.807855667111e-01 4.569522502002e-07 1.950885336122e-01 9.807856361371e-01 4.689959378086e-07 1.950893060819e-01 9.807854824844e-01 4.812001865359e-07 1.950907158983e-01 9.807852020550e-01 4.935676764153e-07 1.950925343663e-01 9.807848403367e-01 5.060981493060e-07 1.950947761336e-01 9.807843944135e-01 5.187878002097e-07 1.950976695647e-01 9.807838188562e-01 5.316286888878e-07 1.951016360376e-01 9.807830298365e-01 5.446081849012e-07 1.951072521155e-01 9.807819126450e-01 5.577086417706e-07 1.951151434226e-01 9.807803427918e-01 5.709078172649e-07 1.951258049411e-01 9.807782217432e-01 5.841810542461e-07 1.951392892205e-01 9.807755389497e-01 5.975076106923e-07 1.951547292352e-01 9.807724668121e-01 6.108866311822e-07 1.951699247989e-01 9.807694430668e-01 6.243747948695e-07 1.951820511584e-01 9.807670298828e-01 6.381742121990e-07 1.951934126861e-01 9.807647687614e-01 6.528392024601e-07 1.952354699780e-01 9.807563975127e-01 6.697722194312e-07 1.954532714974e-01 9.807130154436e-01 6.924409399599e-07 1.963815532991e-01 9.805275546986e-01 7.294052137444e-07 2.001496915752e-01 9.797653295357e-01 1.439798705992e-06 1.051479877723e-01 9.944565856122e-01 -2.630056120495e-08 9.869690165636e-02 9.951175416017e-01 1.003270123274e-08 9.734053446347e-02 9.952511343125e-01 1.709582279033e-08 9.719958141354e-02 9.952649101486e-01 1.704874045123e-08 9.736828273867e-02 9.952484200020e-01 1.507832177794e-08 9.758077573238e-02 9.952276082422e-01 1.280016330453e-08 9.776458349880e-02 9.952095689920e-01 1.071402844906e-08 9.790645115929e-02 9.951956223886e-01 8.949891742413e-09 9.801033015408e-02 9.951853973924e-01 7.513673952046e-09 9.808396145041e-02 9.951781431011e-01 6.373071410282e-09 9.813471650903e-02 9.951731394163e-01 5.488573678744e-09 9.816849480524e-02 9.951698079361e-01 4.824687241006e-09 9.818961475245e-02 9.951677243333e-01 4.353767553147e-09 9.820099747108e-02 9.951666011757e-01 4.057108472921e-09 9.820436871489e-02 9.951662685026e-01 3.925239002897e-09 9.820040774984e-02 9.951666593681e-01 3.958117608207e-09 9.818884509366e-02 9.951678002725e-01 4.165544941939e-09 9.816848560948e-02 9.951698088433e-01 4.567959503532e-09 9.813717063557e-02 9.951728974101e-01 5.197553985697e-09 9.809171764278e-02 9.951773786265e-01 6.099692263629e-09 9.802789256212e-02 9.951836676111e-01 7.334173588158e-09 9.794052423451e-02 9.951922697211e-01 8.975412719775e-09 9.782404901370e-02 9.952037255932e-01 1.110953269882e-08 9.767416887664e-02 9.952184467413e-01 1.382302871162e-08 9.749219836304e-02 9.952362891587e-01 1.717066750279e-08 9.729608639895e-02 9.952554805533e-01 2.109188924089e-08 9.714822299967e-02 9.952699245773e-01 2.519736635709e-08 9.722661004441e-02 9.952622701074e-01 2.822215969211e-08 9.801128132394e-02 9.951853037165e-01 2.661166714155e-08 1.007849201493e-01 9.949082369096e-01 1.088221365459e-08 1.094828111378e-01 9.939886891030e-01 7.528491829042e-07 -7.549597749433e-03 9.999715013807e-01 4.013055080407e-07 2.786299949316e-03 9.999961182588e-01 1.127834772415e-08 4.609126047693e-03 9.999893779221e-01 1.741449277075e-08 4.467997528940e-03 9.999900184492e-01 1.708593370762e-08 3.843755643787e-03 9.999926127440e-01 1.504664953729e-08 3.175236776669e-03 9.999949589230e-01 1.276190747235e-08 2.587011278064e-03 9.999966536807e-01 1.068443989694e-08 2.104040542074e-03 9.999977865042e-01 8.930437027872e-09 1.720188692058e-03 9.999985204743e-01 7.502402768161e-09 1.421191726627e-03 9.999989901065e-01 6.367704122053e-09 1.192435045012e-03 9.999992890491e-01 5.487296272429e-09 1.021424949492e-03 9.999994783454e-01 4.826254704505e-09 8.983699874998e-04 9.999995964656e-01 4.357419460984e-09 8.161124440514e-04 9.999996669802e-01 4.062465707199e-09 7.698987519937e-04 9.999997036279e-01 3.932237593773e-09 7.571485923534e-04 9.999997133630e-01 3.966979349257e-09 7.772844281966e-04 9.999996979144e-01 4.176791187689e-09 8.316429405178e-04 9.999996541849e-01 4.582473928912e-09 9.234448309719e-04 9.999995736247e-01 5.216699045966e-09 1.057810376858e-03 9.999994405184e-01 6.125493793108e-09 1.241736422223e-03 9.999992290450e-01 7.369560564795e-09 1.483886529922e-03 9.999988990398e-01 9.024488544333e-09 1.793900050648e-03 9.999983909600e-01 1.117774725439e-08 2.180453356941e-03 9.999976228088e-01 1.391679860440e-08 2.646369341911e-03 9.999964983585e-01 1.729523117684e-08 3.176614533950e-03 9.999949545473e-01 2.124417024925e-08 3.708788381101e-03 9.999931224207e-01 2.534583136106e-08 4.059675940898e-03 9.999917594817e-01 2.825670549524e-08 3.740304702729e-03 9.999930050359e-01 2.624763047866e-08 1.493604339830e-03 9.999988845724e-01 9.664916535826e-09 -6.187613221009e-03 9.999808565378e-01 7.829347596400e-07 
        </DataArray>
        <DataArray type="Float64" Name="NORMSTRESS_2" NumberOfComponents="3" format="ascii">
          -1.579976990894e-06 1.833925793781e-03 9.999983183554e-01 -1.135063843164e-06 1.906475886349e-03 9.999981826726e-01 -8.666439369163e-07 1.956629825810e-03 9.999980857977e-01 -6.838072729975e-07 2.005507270289e-03 9.999979889680e-01 -5.553129078070e-07 2.056249638476e-03 9.999978859163e-01 -4.640279102400e-07 2.109181215704e-03 9.999977756747e-01 -3.990544584000e-07 2.164110031100e-03 9.999976583111e-01 -3.529405530329e-07 2.220805170035e-03 9.999975340091e-01 -3.204197357629e-07 2.279080928361e-03 9.999974028916e-01 -2.976971090934e-07 2.338799793727e-03 9.999972650040e-01 -2.819977990390e-07 2.399861819011e-03 9.999971203274e-01 -2.712474635355e-07 2.462193856466e-03 9.999969687961e-01 -2.638472235862e-07 2.525741582192e-03 9.999968103096e-01 -2.584991252862e-07 2.590461935600e-03 9.999966447478e-01 -2.540770422146e-07 2.656318229841e-03 9.999964719805e-01 -2.495018047274e-07 2.723275473650e-03 9.999962918784e-01 -2.436315362887e-07 2.791295804740e-03 9.999961043262e-01 -2.351448578306e-07 2.860332722903e-03 9.999959092400e-01 -2.224105677247e-07 2.930327649046e-03 9.999957065807e-01 -2.033093482150e-07 3.001200841447e-03 9.999954963866e-01 -1.750388230721e-07 3.072843479125e-03 9.999952788053e-01 -1.338357495369e-07 3.145106947451e-03 9.999950541389e-01 -7.461534574140e-08 3.217787879821e-03 9.999948229072e-01 9.478626905934e-09 3.290612040189e-03 9.999945859215e-01 1.276675114007e-07 3.363221918620e-03 9.999943443532e-01 2.922220614676e-07 3.435188018169e-03 9.999940997242e-01 5.191277336208e-07 3.506130173141e-03 9.999938535066e-01 8.282151028411e-07 3.576232339250e-03 9.999936052603e-01 1.241087219853e-06 3.648143422005e-03 9.999933455019e-01 1.771929447432e-06 3.733704344835e-03 9.999930297001e-01 2.392047478560e-06 3.904534766740e-03 9.999923772722e-01 -1.765728254520e-04 1.790531818465e-03 9.999983814076e-01 -1.836351142395e-04 1.861164113607e-03 9.999982511716e-01 -1.884705075599e-04 1.909980822764e-03 9.999981582244e-01 -1.931748216165e-04 1.957600432388e-03 9.999980652401e-01 -1.980587843331e-04 2.007073125691e-03 9.999979662130e-01 -2.031546266211e-04 2.058702347728e-03 9.999978602341e-01 -2.084436506351e-04 2.112292745458e-03 9.999977473828e-01 -2.139033187897e-04 2.167614226901e-03 9.999976278442e-01 -2.195155412071e-04 2.224482792850e-03 9.999975017415e-01 -2.252669677721e-04 2.282762728440e-03 9.999973691211e-01 -2.311478886633e-04 2.342355454007e-03 9.999972299670e-01 -2.371512081502e-04 2.403188916501e-03 9.999970842169e-01 -2.432716526615e-04 2.465209507223e-03 9.999969317758e-01 -2.495050639926e-04 2.528374960097e-03 9.999967725284e-01 -2.558478855146e-04 2.592649225602e-03 9.999966063502e-01 -2.622967335283e-04 2.657997880468e-03 9.999964331175e-01 -2.688479472999e-04 2.724383706837e-03 9.999962527201e-01 -2.754970830187e-04 2.791761595339e-03 9.999960650765e-01 -2.822384010212e-04 2.860073309191e-03 9.999958701525e-01 -2.890642563411e-04 2.929241093337e-03 9.999956679849e-01 -2.959641541286e-04 2.999158441131e-03 9.999954587166e-01 -3.029237506716e-04 3.069679727443e-03 9.999952426405e-01 -3.099235083946e-04 3.140606550669e-03 9.999950202566e-01 -3.169370827636e-04 3.211671638488e-03 9.999947923445e-01 -3.239301199925e-04 3.282526886575e-03 9.999945600285e-01 -3.308614906743e-04 3.352757230368e-03 9.999943247587e-01 -3.376946329148e-04 3.422000731071e-03 9.999940879192e-01 -3.444462964622e-04 3.490460023492e-03 9.999938490039e-01 -3.513656926410e-04 3.560779369906e-03 9.999935986757e-01 -3.595675311393e-04 3.644674724189e-03 9.999932935062e-01 -3.795173412381e-04 3.850064886926e-03 9.999925164555e-01 -3.377720913256e-04 1.695906189651e-03 9.999985049050e-01 -3.514143280823e-04 1.763444909047e-03 9.999983833837e-01 -3.606900815435e-04 1.809806274035e-03 9.999982972505e-01 -3.696960151036e-04 1.854941615591e-03 9.999982112566e-01 -3.790418955332e-04 1.901814305815e-03 9.999981197130e-01 -3.887926483739e-04 1.950727566531e-03 9.999980217492e-01 -3.989131253323e-04 2.001499370286e-03 9.999979174321e-01 -4.093603309520e-04 2.053912253857e-03 9.999978069319e-01 -4.200996205514e-04 2.107791733121e-03 9.999976903625e-01 -4.311053716563e-04 2.163008923648e-03 9.999975677673e-01 -4.423590408302e-04 2.219470524590e-03 9.999974391313e-01 -4.538470201060e-04 2.277108085439e-03 9.999973043972e-01 -4.655591005819e-04 2.335870300874e-03 9.999971634783e-01 -4.774873840320e-04 2.395717426255e-03 9.999970162675e-01 -4.896250520430e-04 2.456615136594e-03 9.999968626498e-01 -5.019655452395e-04 2.518530463295e-03 9.999967025120e-01 -5.145018058109e-04 2.581427924188e-03 9.999965357529e-01 -5.272254016292e-04 2.645265057091e-03 9.999963622965e-01 -5.401251923240e-04 2.709985861332e-03 9.999961821134e-01 -5.531864776764e-04 2.775516441122e-03 9.999959952386e-01 -5.663891566863e-04 2.841755677479e-03 9.999958018052e-01 -5.797056879541e-04 2.908565130444e-03 9.999956020854e-01 -5.930984324672e-04 2.975755608746e-03 9.999953965458e-01 -6.065169344684e-04 3.043073603191e-03 9.999951859085e-01 -6.198952769071e-04 3.110188407711e-03 9.999949712163e-01 -6.331548124241e-04 3.176707163468e-03 9.999947538095e-01 -6.462266642582e-04 3.242292569060e-03 9.999945349501e-01 -6.591477543761e-04 3.307162052539e-03 9.999943140855e-01 -6.724130820622e-04 3.373915366190e-03 9.999940822604e-01 -6.882216797851e-04 3.453996237345e-03 9.999937981112e-01 -7.342343579407e-04 3.688055723058e-03 9.999929295474e-01 -4.729781626693e-04 1.557085098053e-03 9.999986758880e-01 -4.924201483789e-04 1.620168812234e-03 9.999985662867e-01 -5.054796167949e-04 1.662958643217e-03 9.999984895283e-01 -5.181122648242e-04 1.704467236100e-03 9.999984131743e-01 -5.312107515883e-04 1.747538811783e-03 9.999983319602e-01 -5.448745229381e-04 1.792478836618e-03 9.999982450641e-01 -5.590560750475e-04 1.839125550066e-03 9.999981525351e-01 -5.736955449957e-04 1.887280387656e-03 9.999980545212e-01 -5.887445052544e-04 1.936783397032e-03 9.999979511229e-01 -6.041669739340e-04 1.987515853253e-03 9.999978423792e-01 -6.199368773935e-04 2.039391770311e-03 9.999977282772e-01 -6.360352242242e-04 2.092348514723e-03 9.999976087656e-01 -6.524477642327e-04 2.146339086542e-03 9.999974837671e-01 -6.691631943870e-04 2.201326197846e-03 9.999973531883e-01 -6.861720073503e-04 2.257278502950e-03 9.999972169270e-01 -7.034650451233e-04 2.314165783718e-03 9.999970748825e-01 -7.210322810110e-04 2.371954965754e-03 9.999969269663e-01 -7.388616981619e-04 2.430606425471e-03 9.999967731127e-01 -7.569379197304e-04 2.490069449801e-03 9.999966132938e-01 -7.752400424942e-04 2.550275110858e-03 9.999964475436e-01 -7.937397299241e-04 2.611129979812e-03 9.999962759818e-01 -8.123981560148e-04 2.672506069140e-03 9.999960988527e-01 -8.311624714827e-04 2.734229166630e-03 9.999959165716e-01 -8.499615017027e-04 2.796064828252e-03 9.999957297843e-01 -8.687028694548e-04 2.857709165930e-03 9.999955394169e-01 -8.872767516065e-04 2.918802569755e-03 9.999953466549e-01 -9.055896098041e-04 2.979045369619e-03 9.999951525863e-01 -9.237051550142e-04 3.038678268021e-03 9.999949565889e-01 -9.423619619068e-04 3.100243324074e-03 9.999947502089e-01 -9.648027416329e-04 3.174805507720e-03 9.999944948677e-01 -1.041438777514e-03 3.430056389578e-03 9.999935750386e-01 -5.737831328358e-04 1.383213615702e-03 9.999988787459e-01 -5.980024033468e-04 1.440723996715e-03 9.999987833530e-01 -6.139815148301e-04 1.479051618977e-03 9.999987177157e-01 -6.293512212233e-04 1.516027899087e-03 9.999986527873e-01 -6.452666983079e-04 1.554347819249e-03 9.999985838159e-01 -6.618642352015e-04 1.594319093114e-03 9.999985100401e-01 -6.790897521215e-04 1.635806244412e-03 9.999984314863e-01 -6.968714123831e-04 1.678634683799e-03 9.999983482766e-01 -7.151505149265e-04 1.722662392075e-03 9.999982604955e-01 -7.338834624268e-04 1.767784017750e-03 9.999981681757e-01 -7.530386756445e-04 1.813923298643e-03 9.999980713056e-01 -7.725929157704e-04 1.861024093271e-03 9.999979698427e-01 -7.925288338632e-04 1.909044500615e-03 9.999978637213e-01 -8.128328933525e-04 1.957951819395e-03 9.999977528612e-01 -8.334933536828e-04 2.007717697310e-03 9.999976371764e-01 -8.544990043055e-04 2.058315038693e-03 9.999975165822e-01 -8.758377841357e-04 2.109714718720e-03 9.999973910026e-01 -8.974948839509e-04 2.161880966880e-03 9.999972603831e-01 -9.194512859657e-04 2.214767853703e-03 9.999971247022e-01 -9.416817062544e-04 2.268314321785e-03 9.999969839883e-01 -9.641513693661e-04 2.322436401570e-03 9.999968383457e-01 -9.868127774678e-04 2.377019421501e-03 9.999966879841e-01 -1.009601571487e-03 2.431908033641e-03 9.999965332580e-01 -1.032430824533e-03 2.486892534865e-03 9.999963747195e-01 -1.055187999729e-03 2.541701868574e-03 9.999962131578e-01 -1.077740863591e-03 2.596019109338e-03 9.999960495719e-01 -1.099981326616e-03 2.649591586151e-03 9.999958848443e-01 -1.122009097062e-03 2.702689270952e-03 9.999957182740e-01 -1.144804141394e-03 2.757780386137e-03 9.999955420255e-01 -1.172602651779e-03 2.825450345138e-03 9.999953209057e-01 -1.282416254883e-03 3.093034392385e-03 9.999943942577e-01 -6.346876634196e-04 1.185507976551e-03 9.999990958708e-01 -6.624915369427e-04 1.236622969112e-03 9.999990159338e-01 -6.803893776797e-04 1.269872677549e-03 9.999989622463e-01 -6.974668611957e-04 1.301700376889e-03 9.999989095575e-01 -7.151165193197e-04 1.334623025841e-03 9.999988536942e-01 -7.335146173360e-04 1.368950330581e-03 9.999987939649e-01 -7.526069948129e-04 1.404576355256e-03 9.999987303732e-01 -7.723153618098e-04 1.441353530710e-03 9.999986630136e-01 -7.925751098764e-04 1.479160693103e-03 9.999985919532e-01 -8.133382176195e-04 1.517907926337e-03 9.999985172171e-01 -8.345695730687e-04 1.557529506502e-03 9.999984387965e-01 -8.562435886298e-04 1.597977522066e-03 9.999983566560e-01 -8.783410858762e-04 1.639216090599e-03 9.999982707423e-01 -9.008469307831e-04 1.681216879735e-03 9.999981809907e-01 -9.237480495952e-04 1.723955401382e-03 9.999980873318e-01 -9.470320684365e-04 1.767408501603e-03 9.999979896967e-01 -9.706853898978e-04 1.811550729933e-03 9.999978880247e-01 -9.946916196611e-04 1.856351385804e-03 9.999977822716e-01 -1.019029539876e-03 1.901770768995e-03 9.999976724207e-01 -1.043670787553e-03 1.947755810374e-03 9.999975584963e-01 -1.068576580306e-03 1.994233920847e-03 9.999974405843e-01 -1.093694026238e-03 2.041106163552e-03 9.999973188559e-01 -1.118950904915e-03 2.088237451246e-03 9.999971936027e-01 -1.144250698887e-03 2.135447354106e-03 9.999970652732e-01 -1.169468565095e-03 2.182502912817e-03 9.999969345075e-01 -1.194459428119e-03 2.229134893792e-03 9.999968021070e-01 -1.219112363945e-03 2.275143566074e-03 9.999966687379e-01 -1.243574227327e-03 2.320831221010e-03 9.999965336268e-01 -1.269062393561e-03 2.368571852245e-03 9.999963896675e-01 -1.300746910705e-03 2.428376096899e-03 9.999962055163e-01 -1.444012456023e-03 2.698711559596e-03 9.999953158810e-01 -6.535520591572e-04 9.763305113485e-04 9.999993098240e-01 -6.836598418779e-04 1.020554728425e-03 9.999992455383e-01 -7.024198724467e-04 1.048413220413e-03 9.999992037177e-01 -7.201223337776e-04 1.074793436191e-03 9.999991631211e-01 -7.383678959851e-04 1.102009149184e-03 9.999991201940e-01 -7.573750858152e-04 1.130368815427e-03 9.999990743242e-01 -7.770966113149e-04 1.159797379632e-03 9.999990254950e-01 -7.974536754503e-04 1.190175899548e-03 9.999989737740e-01 -8.183803218388e-04 1.221405404148e-03 9.999989192107e-01 -8.398273218479e-04 1.253412136092e-03 9.999988618234e-01 -8.617585268550e-04 1.286141965463e-03 9.999988016048e-01 -8.841476354542e-04 1.319555505815e-03 9.999987385273e-01 -9.069750015814e-04 1.353623340882e-03 9.999986725492e-01 -9.302248983784e-04 1.388321911771e-03 9.999986036210e-01 -9.538840108616e-04 1.423631283238e-03 9.999985316886e-01 -9.779394453956e-04 1.459532143626e-03 9.999984566990e-01 -1.002376887006e-03 1.496003053996e-03 9.999983786064e-01 -1.027179421160e-03 1.533018687625e-03 9.999982973766e-01 -1.052325058429e-03 1.570546126018e-03 9.999982129968e-01 -1.077783850141e-03 1.608540532384e-03 9.999981254879e-01 -1.103515817439e-03 1.646942069246e-03 9.999980349154e-01 -1.129465722852e-03 1.685668068095e-03 9.999979414131e-01 -1.155558276626e-03 1.724605875545e-03 9.999978452075e-01 -1.181693147371e-03 1.763605492772e-03 9.999977466459e-01 -1.207741507450e-03 1.802474666677e-03 9.999976462200e-01 -1.233555877952e-03 1.840994697132e-03 9.999975445362e-01 -1.259035166437e-03 1.879021546972e-03 9.999974420510e-01 -1.284383007700e-03 1.916885538154e-03 9.999973379515e-01 -1.311048942709e-03 1.956845606386e-03 9.999972259491e-01 -1.345068370658e-03 2.008249242119e-03 9.999970788588e-01 -1.519719164237e-03 2.271752452933e-03 9.999962647903e-01 -6.317662704755e-04 7.681762385899e-04 9.999995053882e-01 -6.628923422936e-04 8.053442086441e-04 9.999994559971e-01 -6.814860027216e-04 8.278018906908e-04 9.999994251603e-01 -6.987664933419e-04 8.487545923553e-04 9.999993956703e-01 -7.165090349428e-04 8.702909545066e-04 9.999993646040e-01 -7.349753477541e-04 8.927129647651e-04 9.999993314372e-01 -7.541311691739e-04 9.159749767681e-04 9.999992961378e-01 -7.739032666630e-04 9.399868248643e-04 9.999992587490e-01 -7.942287345174e-04 9.646716272944e-04 9.999992193044e-01 -8.150600951153e-04 9.899714636582e-04 9.999991778164e-01 -8.363628173836e-04 1.015844221368e-03 9.999991342785e-01 -8.581116550736e-04 1.042259120360e-03 9.999990886697e-01 -8.802873314248e-04 1.069192658903e-03 9.999990409602e-01 -9.028748473771e-04 1.096626545138e-03 9.999989911131e-01 -9.258614983559e-04 1.124545285732e-03 9.999989390886e-01 -9.492344893248e-04 1.152933277874e-03 9.999988848487e-01 -9.729800463552e-04 1.181773726228e-03 9.999988283597e-01 -9.970818149938e-04 1.211046697741e-03 9.999987695961e-01 -1.021518001929e-03 1.240725618359e-03 9.999987085496e-01 -1.046259389182e-03 1.270774882413e-03 9.999986452353e-01 -1.071266587136e-03 1.301146491403e-03 9.999985797018e-01 -1.096485403166e-03 1.331774408868e-03 9.999985120472e-01 -1.121842142213e-03 1.362568869999e-03 9.999984424369e-01 -1.147238638320e-03 1.393410401478e-03 9.999983711242e-01 -1.172549605459e-03 1.424146850847e-03 9.999982984651e-01 -1.197635848071e-03 1.454610465157e-03 9.999982248868e-01 -1.222417201046e-03 1.484710170906e-03 9.999981506642e-01 -1.247162784003e-03 1.514797218185e-03 9.999980749853e-01 -1.273544173516e-03 1.546990263298e-03 9.999979924512e-01 -1.308386826631e-03 1.589894829903e-03 9.999978801769e-01 -1.510181294590e-03 1.837701523051e-03 9.999971710988e-01 -5.741198091270e-04 5.726473761188e-04 9.999996712307e-01 -6.050475917330e-04 6.029001793591e-04 9.999996352143e-01 -6.225530570396e-04 6.202280370421e-04 9.999996138724e-01 -6.384858275690e-04 6.360679449622e-04 9.999995938766e-01 -6.547560255645e-04 6.522636838842e-04 9.999995729232e-01 -6.716675989375e-04 6.691041167216e-04 9.999995505811e-01 -6.892044001573e-04 6.865696208932e-04 9.999995268096e-01 -7.073038497691e-04 7.045967906336e-04 9.999995016322e-01 -7.259099742965e-04 7.231294479911e-04 9.999994750691e-01 -7.449801096835e-04 7.421248581773e-04 9.999994471275e-01 -7.644831333550e-04 7.615518752369e-04 9.999994178020e-01 -7.843963899375e-04 7.813878284087e-04 9.999993870775e-01 -8.047026274793e-04 8.016154463781e-04 9.999993549330e-01 -8.253883455530e-04 8.222212194608e-04 9.999993213429e-01 -8.464418671084e-04 8.431934644271e-04 9.999992862802e-01 -8.678518420497e-04 8.645208133312e-04 9.999992497182e-01 -8.896056739609e-04 8.861906640266e-04 9.999992116336e-01 -9.116879382964e-04 9.081875864863e-04 9.999991720099e-01 -9.340787396649e-04 9.304916746595e-04 9.999991308407e-01 -9.567513308975e-04 9.530761748802e-04 9.999990881359e-01 -9.796688563563e-04 9.759042316167e-04 9.999990439295e-01 -1.002781245223e-03 9.989257777970e-04 9.999989982880e-01 -1.026020481920e-03 1.022072834668e-03 9.999989513240e-01 -1.049295708915e-03 1.045254666668e-03 9.999989032100e-01 -1.072492456450e-03 1.068357271927e-03 9.999988541857e-01 -1.095488391087e-03 1.091259985768e-03 9.999988045277e-01 -1.118234056956e-03 1.113919258902e-03 9.999987543675e-01 -1.141069972747e-03 1.136696468969e-03 9.999987029394e-01 -1.165873404811e-03 1.161542203151e-03 9.999986457785e-01 -1.200176730095e-03 1.196248766438e-03 9.999985642813e-01 -1.423104515397e-03 1.420883469840e-03 9.999979779298e-01 -4.883831842327e-04 3.995070043636e-04 9.999998009380e-01 -5.180191329918e-04 4.232455199175e-04 9.999997762597e-01 -5.336861440535e-04 4.359484995260e-04 9.999997625640e-01 -5.475397598441e-04 4.472367051912e-04 9.999997500897e-01 -5.615756909417e-04 4.586904959111e-04 9.999997371179e-01 -5.761359021061e-04 4.705774217240e-04 9.999997233121e-01 -5.912264032128e-04 4.828994022097e-04 9.999997086297e-01 -6.067989220498e-04 4.956161084235e-04 9.999996930798e-01 -6.228072441073e-04 5.086894294131e-04 9.999996766730e-01 -6.392159606761e-04 5.220902481371e-04 9.999996594123e-01 -6.559992255810e-04 5.357973319084e-04 9.999996412931e-01 -6.731379215444e-04 5.497949748129e-04 9.999996223053e-01 -6.906179652409e-04 5.640716063159e-04 9.999996024349e-01 -7.084280411341e-04 5.786179319618e-04 9.999995816654e-01 -7.265581682232e-04 5.934257484828e-04 9.999995599795e-01 -7.449988870608e-04 6.084872870870e-04 9.999995373598e-01 -7.637395876502e-04 6.237938325601e-04 9.999995137914e-01 -7.827669078249e-04 6.393344105207e-04 9.999994892636e-01 -8.020637938516e-04 6.550950228144e-04 9.999994637719e-01 -8.216069996482e-04 6.710565902622e-04 9.999994373223e-01 -8.413644273278e-04 6.871927661591e-04 9.999994099358e-01 -8.612923523291e-04 7.034676796997e-04 9.999993816542e-01 -8.813313889342e-04 7.198326294770e-04 9.999993525478e-01 -9.014024193647e-04 7.362227986899e-04 9.999993227246e-01 -9.214074951209e-04 7.525582158416e-04 9.999992923319e-01 -9.412478360685e-04 7.687592754572e-04 9.999992615306e-01 -9.609118903303e-04 7.848216492193e-04 9.999992303514e-01 -9.808124508512e-04 8.011023037904e-04 9.999991981207e-01 -1.003006604768e-03 8.193535256194e-04 9.999991613184e-01 -1.035645989805e-03 8.464941265213e-04 9.999991054421e-01 -1.272600599477e-03 1.042444946712e-03 9.999986468972e-01 -3.846382663192e-04 2.558931257488e-04 9.999998932861e-01 -4.120333034330e-04 2.737136817423e-04 9.999998776547e-01 -4.253238644707e-04 2.824642137640e-04 9.999998696568e-01 -4.366164781805e-04 2.899410442340e-04 9.999998626501e-01 -4.479237856107e-04 2.974410415107e-04 9.999998554465e-01 -4.596147563412e-04 3.051997894544e-04 9.999998478037e-01 -4.717200874515e-04 3.132352764593e-04 9.999998396819e-01 -4.842091910641e-04 3.215264665755e-04 9.999998310811e-01 -4.970479627885e-04 3.300504180951e-04 9.999998220050e-01 -5.102093874463e-04 3.387890334486e-04 9.999998124542e-01 -5.236735152120e-04 3.477289611668e-04 9.999998024253e-01 -5.374259067391e-04 3.568605392856e-04 9.999997919120e-01 -5.514559897951e-04 3.661766951265e-04 9.999997809054e-01 -5.657553300889e-04 3.756717807416e-04 9.999997693958e-01 -5.803164848043e-04 3.853408173028e-04 9.999997573726e-01 -5.951322507969e-04 3.951789882179e-04 9.999997448256e-01 -6.101943039030e-04 4.051807213421e-04 9.999997317457e-01 -6.254921997655e-04 4.153390349540e-04 9.999997181265e-01 -6.410122252706e-04 4.256447685062e-04 9.999997039649e-01 -6.567356375956e-04 4.360853939357e-04 9.999996892639e-01 -6.726364216753e-04 4.466435314700e-04 9.999996740348e-01 -6.886787351929e-04 4.572952494454e-04 9.999996583013e-01 -7.048135842682e-04 4.680078435330e-04 9.999996421032e-01 -7.209766255505e-04 4.787384221299e-04 9.999996255010e-01 -7.370905254827e-04 4.894356737050e-04 9.999996085751e-01 -7.530862488175e-04 5.000547039156e-04 9.999995914031e-01 -7.689946166337e-04 5.106204637906e-04 9.999995739569e-01 -7.852913791293e-04 5.214661955099e-04 9.999995556951e-01 -8.041678998244e-04 5.341103254909e-04 9.999995340200e-01 -8.343134416987e-04 5.545548358439e-04 9.999994981949e-01 -1.078139856404e-03 7.187421468884e-04 9.999991605117e-01 -2.744261207005e-04 1.457635792582e-04 9.999999517216e-01 -2.987567762656e-04 1.583895448727e-04 9.999999428286e-01 -3.093407798486e-04 1.639430313735e-04 9.999999387155e-01 -3.178628419225e-04 1.684426913239e-04 9.999999352951e-01 -3.262559834826e-04 1.728840321892e-04 9.999999318341e-01 -3.348807276274e-04 1.774510839567e-04 9.999999281830e-01 -3.437884739336e-04 1.821692985490e-04 9.999999243119e-01 -3.529710735027e-04 1.870338349855e-04 9.999999202149e-01 -3.624105824678e-04 1.920349783081e-04 9.999999158906e-01 -3.720900728734e-04 1.971636449654e-04 9.999999113377e-01 -3.819960362085e-04 2.024125983553e-04 9.999999065541e-01 -3.921184696568e-04 2.077764802338e-04 9.999999015360e-01 -4.024500453220e-04 2.132513661536e-04 9.999998962789e-01 -4.129852423457e-04 2.188342964991e-04 9.999998907774e-01 -4.237194188999e-04 2.245227829660e-04 9.999998850257e-01 -4.346478802072e-04 2.303143129706e-04 9.999998790183e-01 -4.457652266385e-04 2.362059965221e-04 9.999998727500e-01 -4.570643155295e-04 2.421940139551e-04 9.999998662171e-01 -4.685350611859e-04 2.482729755534e-04 9.999998594177e-01 -4.801631717880e-04 2.544352465575e-04 9.999998523530e-01 -4.919286144947e-04 2.606701258103e-04 9.999998450286e-01 -5.038037211293e-04 2.669628375399e-04 9.999998374563e-01 -5.157518754177e-04 2.732938418176e-04 9.999998296552e-01 -5.277276047958e-04 2.796389264187e-04 9.999998216528e-01 -5.396807836807e-04 2.859715987133e-04 9.999998134824e-01 -5.515771915302e-04 2.922745893124e-04 9.999998051691e-01 -5.634818793653e-04 2.985862065464e-04 9.999997966672e-01 -5.758933542994e-04 3.051852488953e-04 9.999997876044e-01 -5.910607799713e-04 3.133176194853e-04 9.999997762396e-01 -6.182113004337e-04 3.280767956106e-04 9.999997550902e-01 -8.635843374831e-04 4.602938676896e-04 9.999995211757e-01 -1.697779177560e-04 6.960432812368e-05 9.999999831653e-01 -1.903147275752e-04 7.784286616764e-05 9.999999788604e-01 -1.980229234054e-04 8.095953567131e-05 9.999999771162e-01 -2.037680588194e-04 8.329746566255e-05 9.999999757701e-01 -2.093613246955e-04 8.558011520465e-05 9.999999744219e-01 -2.150746140189e-04 8.791395360354e-05 9.999999730070e-01 -2.209346090121e-04 9.030853968031e-05 9.999999715161e-01 -2.269447578827e-04 9.276489876966e-05 9.999999699454e-01 -2.331080513776e-04 9.528415200677e-05 9.999999682908e-01 -2.394254050334e-04 9.786664329141e-05 9.999999665488e-01 -2.458951722469e-04 1.005116796888e-04 9.999999647165e-01 -2.525142682052e-04 1.032179793037e-04 9.999999627913e-01 -2.592791550595e-04 1.059840738627e-04 9.999999607708e-01 -2.661864460553e-04 1.088085570265e-04 9.999999586527e-01 -2.732330242922e-04 1.116901343546e-04 9.999999564345e-01 -2.804155191785e-04 1.146274076909e-04 9.999999541138e-01 -2.877298425916e-04 1.176186816130e-04 9.999999516887e-01 -2.951706736612e-04 1.206617518716e-04 9.999999491575e-01 -3.027307649146e-04 1.237536177196e-04 9.999999465196e-01 -3.104006152215e-04 1.268903446438e-04 9.999999437751e-01 -3.181685057794e-04 1.300670837949e-04 9.999999409257e-01 -3.260208010801e-04 1.332782010821e-04 9.999999379737e-01 -3.339422722937e-04 1.365174245577e-04 9.999999349228e-01 -3.419153558771e-04 1.397775816641e-04 9.999999317781e-01 -3.499175574864e-04 1.430496416177e-04 9.999999285472e-01 -3.579247934385e-04 1.463244677797e-04 9.999999252395e-01 -3.659709140764e-04 1.496187406812e-04 9.999999218398e-01 -3.744856217967e-04 1.531194791145e-04 9.999999181575e-01 -3.857601888864e-04 1.578081645091e-04 9.999999131428e-01 -4.099562363223e-04 1.680198823473e-04 9.999999018526e-01 -6.582676470902e-04 2.717821838062e-04 9.999997464090e-01 -8.222080624865e-05 2.442540155445e-05 9.999999963216e-01 -9.823280558243e-05 2.913032906094e-05 9.999999947509e-01 -1.032907637049e-04 3.061812961436e-05 9.999999941968e-01 -1.062724201110e-04 3.149532902864e-05 9.999999938571e-01 -1.092135586755e-04 3.236421933527e-05 9.999999935125e-01 -1.123662805774e-04 3.329813287760e-05 9.999999931325e-01 -1.156627543057e-04 3.427579359570e-05 9.999999927236e-01 -1.190379547368e-04 3.527722883538e-05 9.999999922927e-01 -1.224662407897e-04 3.629452310512e-05 9.999999918424e-01 -1.259464422097e-04 3.732723788782e-05 9.999999913721e-01 -1.294867378563e-04 3.837780756222e-05 9.999999908802e-01 -1.330962958141e-04 3.944899123557e-05 9.999999903646e-01 -1.367819381710e-04 4.054284958564e-05 9.999999898235e-01 -1.405474985459e-04 4.166054293012e-05 9.999999892554e-01 -1.443943752589e-04 4.280249530501e-05 9.999999886591e-01 -1.483224439582e-04 4.396866788080e-05 9.999999880336e-01 -1.523312335504e-04 4.515891585519e-05 9.999999873779e-01 -1.564210320556e-04 4.637332518705e-05 9.999999866910e-01 -1.605938090619e-04 4.761249431375e-05 9.999999859713e-01 -1.648538795410e-04 4.887774104012e-05 9.999999852171e-01 -1.692072590159e-04 5.017091618708e-05 9.999999844259e-01 -1.736583057424e-04 5.149339674976e-05 9.999999835956e-01 -1.782016521022e-04 5.284365506580e-05 9.999999827259e-01 -1.828068167072e-04 5.421261319532e-05 9.999999818213e-01 -1.873975827361e-04 5.557742434930e-05 9.999999808966e-01 -1.918486044343e-04 5.690058165060e-05 9.999999799782e-01 -1.960893083478e-04 5.816207187581e-05 9.999999790831e-01 -2.006074212980e-04 5.951488508262e-05 9.999999781073e-01 -2.082771370005e-04 6.185126264754e-05 9.999999763975e-01 -2.315716677673e-04 6.904759922683e-05 9.999999708035e-01 -5.160644604005e-04 1.563267815315e-04 9.999998546197e-01 -2.287128103567e-05 4.242903585919e-06 9.999999997295e-01 -3.180971517761e-05 5.979926814516e-06 9.999999994762e-01 -3.577680459403e-05 6.755483269378e-06 9.999999993372e-01 -3.690933506829e-05 6.971087572922e-06 9.999999992946e-01 -3.738802670956e-05 7.055735639305e-06 9.999999992762e-01 -3.799944414119e-05 7.165759259315e-06 9.999999992523e-01 -3.888765464698e-05 7.330350498369e-06 9.999999992170e-01 -4.001620148772e-05 7.542601617325e-06 9.999999991709e-01 -4.131808015027e-05 7.789328631197e-06 9.999999991161e-01 -4.273522680866e-05 8.059013144520e-06 9.999999990544e-01 -4.422590109476e-05 8.343331387083e-06 9.999999989872e-01 -4.576350483408e-05 8.636952930107e-06 9.999999989156e-01 -4.733351572496e-05 8.936948007062e-06 9.999999988398e-01 -4.893033225043e-05 9.242168181563e-06 9.999999987602e-01 -5.055435770396e-05 9.552670799732e-06 9.999999986765e-01 -5.220930220797e-05 9.869184900262e-06 9.999999985884e-01 -5.389941456618e-05 1.019256268353e-05 9.999999984955e-01 -5.562627327625e-05 1.052314220148e-05 9.999999983975e-01 -5.738478684730e-05 1.085995300651e-05 9.999999982945e-01 -5.915793096782e-05 1.119966892699e-05 9.999999981875e-01 -6.091018281921e-05 1.153529566905e-05 9.999999980784e-01 -6.258074551154e-05 1.185480777502e-05 9.999999979716e-01 -6.407999889861e-05 1.214041068118e-05 9.999999978732e-01 -6.529823167721e-05 1.237022092607e-05 9.999999977916e-01 -6.614537647572e-05 1.252609718416e-05 9.999999977339e-01 -6.665583625865e-05 1.261446220657e-05 9.999999976989e-01 -6.722364167413e-05 1.271331641162e-05 9.999999976597e-01 -6.915913449061e-05 1.308433362283e-05 9.999999975229e-01 -7.655603856045e-05 1.455133869638e-05 9.999999969637e-01 -1.084478365547e-04 2.097620743720e-05 9.999999938995e-01 -3.918846090604e-03 7.990852764155e-04 9.999920020220e-01 5.782639061789e-07 -3.469505399263e-08 9.999999999998e-01 -2.560715312704e-07 1.531554300763e-08 1.000000000000e+00 -5.628763572967e-07 3.787472464608e-08 9.999999999998e-01 -7.013106044901e-07 5.136155833974e-08 9.999999999998e-01 -7.271065417665e-07 5.598480986466e-08 9.999999999997e-01 -6.797771011899e-07 5.378971916710e-08 9.999999999998e-01 -5.971504697573e-07 4.789557897957e-08 9.999999999998e-01 -5.069176298406e-07 4.087700298331e-08 9.999999999999e-01 -4.241395794510e-07 3.422114748729e-08 9.999999999999e-01 -3.546917764163e-07 2.855418731963e-08 9.999999999999e-01 -2.995231856910e-07 2.402099523199e-08 1.000000000000e+00 -2.575451154516e-07 2.055742540034e-08 1.000000000000e+00 -2.271469788477e-07 1.803686590028e-08 1.000000000000e+00 -2.068679288199e-07 1.633648924990e-08 1.000000000000e+00 -1.956528570645e-07 1.536298686589e-08 1.000000000000e+00 -1.929294969358e-07 1.506042984536e-08 1.000000000000e+00 -1.986258694443e-07 1.541177254763e-08 1.000000000000e+00 -2.131870824986e-07 1.643970043251e-08 1.000000000000e+00 -2.376202841964e-07 1.820972861913e-08 1.000000000000e+00 -2.736018708906e-07 2.083888324605e-08 1.000000000000e+00 -3.236876874610e-07 2.451431736266e-08 9.999999999999e-01 -3.917125023585e-07 2.953109263868e-08 9.999999999999e-01 -4.835704219419e-07 3.636972313104e-08 9.999999999999e-01 -6.087924921283e-07 4.585955186501e-08 9.999999999998e-01 -7.840134301218e-07 5.954819573152e-08 9.999999999997e-01 -1.041551703066e-06 8.062956378291e-08 9.999999999995e-01 -1.454934583636e-06 1.166989378015e-07 9.999999999989e-01 -2.243145661794e-06 1.907751298756e-07 9.999999999975e-01 -4.641756026847e-06 4.304050582777e-07 9.999999999891e-01 9.949082368955e-01 -1.007849201478e-01 -5.314593176424e-06 9.939886605416e-01 -1.094828078103e-01 -2.398096912083e-04 2.689753695112e-06 -3.810098078495e-07 9.999999999963e-01 -8.971226289995e-08 -1.102842526007e-08 1.000000000000e+00 -5.414856982621e-07 -1.491887540389e-08 9.999999999999e-01 -1.150104456979e-06 -1.194738908927e-08 9.999999999993e-01 -2.057200457016e-06 -7.139326410231e-09 9.999999999979e-01 -4.526221763558e-06 1.609926446551e-09 9.999999999898e-01 9.999966532493e-01 -2.587011276634e-03 -2.937579639195e-05 9.999977864995e-01 -2.104040542036e-03 -3.097986095652e-06 9.999985204732e-01 -1.720188692045e-03 -1.491117546378e-06 9.999989901061e-01 -1.421191726620e-03 -9.156301846727e-07 9.999992890489e-01 -1.192435045008e-03 -6.297349703326e-07 9.999994783453e-01 -1.021424949490e-03 -4.680504372364e-07 9.999995964655e-01 -8.983699874981e-04 -3.724260966035e-07 9.999996669801e-01 -8.161124440501e-04 -3.175660134772e-07 9.999997036279e-01 -7.698987519925e-04 -2.916109658878e-07 9.999997133629e-01 -7.571485923523e-04 -2.897650992885e-07 9.999996979144e-01 -7.772844281952e-04 -3.122341275855e-07 9.999996541849e-01 -8.316429405161e-04 -3.642527303946e-07 9.999995736246e-01 -9.234448309694e-04 -4.581001319315e-07 9.999994405183e-01 -1.057810376854e-03 -6.187042267278e-07 9.999992290446e-01 -1.241736422216e-03 -8.989965667853e-07 9.999988990388e-01 -1.483886529907e-03 -1.430632866271e-06 9.999983909565e-01 -1.793900050611e-03 -2.663323506669e-06 9.999976227769e-01 -2.180453356761e-03 -7.976895872035e-06 -1.329646190097e-05 1.789218060731e-08 9.999999999116e-01 -3.894407069171e-06 -8.873184921282e-09 9.999999999924e-01 -2.131109834074e-06 -1.744211592907e-08 9.999999999977e-01 -1.181242883188e-06 -2.346143551638e-08 9.999999999993e-01 -4.737551416021e-07 -2.447581310201e-08 9.999999999999e-01 -3.166934020519e-08 -9.617625799621e-09 1.000000000000e+00 4.268702241515e-06 -7.565361639280e-07 9.999999999906e-01 
        </DataArray>
        <DataArray type="Float64" Name="NORMSTRESS_3" NumberOfComponents="3" format="ascii">
          -8.598839524900e-04 9.999979486545e-01 -1.833926474375e-03 -5.942487703527e-04 9.999980061064e-01 -1.906476224241e-03 -4.420887814400e-04 9.999979880762e-01 -1.956630017739e-03 -3.403174528293e-04 9.999979310599e-01 -2.005507386865e-03 -2.695469513018e-04 9.999978495885e-01 -2.056249713460e-03 -2.195841598443e-04 9.999977515661e-01 -2.109181266748e-03 -1.840443030806e-04 9.999976413749e-01 -2.164110067892e-03 -1.586206503111e-04 9.999975214288e-01 -2.220805198081e-03 -1.403225409943e-04 9.999973930464e-01 -2.279080950885e-03 -1.270424813031e-04 9.999972569341e-01 -2.338799812673e-03 -1.172806758444e-04 9.999971134500e-01 -2.399861835579e-03 -1.099537579743e-04 9.999969627511e-01 -2.462193871407e-03 -1.042629374534e-04 9.999968048742e-01 -2.525741595973e-03 -9.959738632842e-05 9.999966397880e-01 -2.590461948498e-03 -9.546653302326e-05 9.999964674235e-01 -2.656318241992e-03 -9.144241630628e-05 9.999962876976e-01 -2.723275485079e-03 -8.711500189539e-05 9.999961005317e-01 -2.791295815372e-03 -8.205101217950e-05 9.999959058738e-01 -2.860332732569e-03 -7.575370905556e-05 9.999957037114e-01 -2.930327657486e-03 -6.761242926785e-05 9.999954941009e-01 -3.001200848333e-03 -5.685356302999e-05 9.999952771891e-01 -3.072843484110e-03 -4.247171712722e-05 9.999950532370e-01 -3.145106950299e-03 -2.314371280612e-05 9.999948226394e-01 -3.217787880687e-03 2.874947938208e-06 9.999945859174e-01 -3.290612040203e-03 3.788652280379e-05 9.999943436355e-01 -3.363221921043e-03 8.490252664872e-05 9.999940961199e-01 -3.435188030598e-03 1.477753872745e-04 9.999938425877e-01 -3.506130211572e-03 2.311376643918e-04 9.999935785479e-01 -3.576232435153e-03 3.395324784409e-04 9.999932878603e-01 -3.648143633111e-03 4.736504258502e-04 9.999929175269e-01 -3.733704765291e-03 6.114576419572e-04 9.999921903305e-01 -3.904535499461e-03 -9.795158846361e-02 9.951895543741e-01 -1.799217063442e-03 -9.800469033936e-02 9.951841955226e-01 -1.870201484303e-03 -9.801393849333e-02 9.951831913338e-01 -1.919257082161e-03 -9.801601465593e-02 9.951828934197e-01 -1.967108494493e-03 -9.801649430821e-02 9.951827466721e-01 -2.016821675490e-03 -9.801661034360e-02 9.951826287520e-01 -2.068701768644e-03 -9.801664067052e-02 9.951825123677e-01 -2.122552528984e-03 -9.801664701058e-02 9.951823916262e-01 -2.178142763437e-03 -9.801664451888e-02 9.951822651588e-01 -2.235287585690e-03 -9.801664010921e-02 9.951821323311e-01 -2.293850625846e-03 -9.801663281927e-02 9.951819932216e-01 -2.353732827200e-03 -9.801662239695e-02 9.951818477929e-01 -2.414861788153e-03 -9.801661084867e-02 9.951816957516e-01 -2.477183641245e-03 -9.801659930307e-02 9.951815368708e-01 -2.540655916351e-03 -9.801658472733e-02 9.951813713241e-01 -2.605242388925e-03 -9.801656911693e-02 9.951811987907e-01 -2.670908469795e-03 -9.801655364443e-02 9.951810190443e-01 -2.737616761503e-03 -9.801653733199e-02 9.951808320995e-01 -2.805321936323e-03 -9.801651831323e-02 9.951806381056e-01 -2.873965475311e-03 -9.801650066461e-02 9.951804366979e-01 -2.943469248488e-03 -9.801648219147e-02 9.951802282366e-01 -3.013726233390e-03 -9.801646222807e-02 9.951800130812e-01 -3.084590100181e-03 -9.801644155145e-02 9.951797916577e-01 -3.155861487600e-03 -9.801641368910e-02 9.951795653871e-01 -3.227271828094e-03 -9.801635847878e-02 9.951793373847e-01 -3.298471326283e-03 -9.801620460984e-02 9.951791161313e-01 -3.369042884819e-03 -9.801569550558e-02 9.951789282879e-01 -3.438622723877e-03 -9.801394806061e-02 9.951788603219e-01 -3.507414143680e-03 -9.800793465354e-02 9.951792010175e-01 -3.578073098593e-03 -9.798738344268e-02 9.951809180968e-01 -3.662368381381e-03 -9.791069756922e-02 9.951876849464e-01 -3.868724921109e-03 -1.949598863423e-01 9.808096923104e-01 -1.729215821935e-03 -1.950655727360e-01 9.807885547373e-01 -1.798118327745e-03 -1.950839792195e-01 9.807848059367e-01 -1.845398493886e-03 -1.950881123528e-01 9.807838961441e-01 -1.891423545862e-03 -1.950890716850e-01 9.807836119855e-01 -1.939218882000e-03 -1.950893075718e-01 9.807834651818e-01 -1.989094565816e-03 -1.950893685610e-01 9.807833466896e-01 -2.040865210758e-03 -1.950893850068e-01 9.807832307533e-01 -2.094309144196e-03 -1.950893862135e-01 9.807831116602e-01 -2.149248475849e-03 -1.950893777590e-01 9.807829883449e-01 -2.205551799073e-03 -1.950893651690e-01 9.807828596931e-01 -2.263123988127e-03 -1.950893503279e-01 9.807827252715e-01 -2.321895252982e-03 -1.950893303935e-01 9.807825855571e-01 -2.381813282474e-03 -1.950893071929e-01 9.807824400771e-01 -2.442837554776e-03 -1.950892830813e-01 9.807822882460e-01 -2.504933074243e-03 -1.950892561813e-01 9.807821303218e-01 -2.568066226088e-03 -1.950892253901e-01 9.807819664204e-01 -2.632200833009e-03 -1.950891947636e-01 9.807817956578e-01 -2.697293603702e-03 -1.950891627229e-01 9.807816183181e-01 -2.763287440150e-03 -1.950891277995e-01 9.807814347289e-01 -2.830106998581e-03 -1.950890934788e-01 9.807812443327e-01 -2.897649181478e-03 -1.950890576112e-01 9.807810478348e-01 -2.965772835903e-03 -1.950890176041e-01 9.807808462263e-01 -3.034285062834e-03 -1.950889641612e-01 9.807806420929e-01 -3.102927380742e-03 -1.950888570273e-01 9.807804445049e-01 -3.171362578153e-03 -1.950885507580e-01 9.807802837594e-01 -3.239190001376e-03 -1.950875400385e-01 9.807802616557e-01 -3.306065392296e-03 -1.950840651829e-01 9.807807276434e-01 -3.372209201897e-03 -1.950720986119e-01 9.807828714352e-01 -3.440267790492e-03 -1.950312004160e-01 9.807907152533e-01 -3.521893982864e-03 -1.948785514379e-01 9.808201717626e-01 -3.760432563811e-03 -2.900906782353e-01 9.569977796106e-01 -1.627335692275e-03 -2.902479168189e-01 9.569499879088e-01 -1.693346875318e-03 -2.902753009041e-01 9.569416015332e-01 -1.738085180518e-03 -2.902814573583e-01 9.569396542448e-01 -1.781473497782e-03 -2.902828919926e-01 9.569391341882e-01 -1.826492717399e-03 -2.902832497710e-01 9.569389348516e-01 -1.873464023702e-03 -2.902833503703e-01 9.569388076427e-01 -1.922218832727e-03 -2.902833818147e-01 9.569386956800e-01 -1.972549753033e-03 -2.902833888274e-01 9.569385855018e-01 -2.024289662039e-03 -2.902833852168e-01 9.569384729603e-01 -2.077314502083e-03 -2.902833736295e-01 9.569383572390e-01 -2.131534420911e-03 -2.902833557913e-01 9.569382377609e-01 -2.186883969102e-03 -2.902833328108e-01 9.569381141089e-01 -2.243314033901e-03 -2.902833061363e-01 9.569379857462e-01 -2.300785651895e-03 -2.902832744440e-01 9.569378529673e-01 -2.359266067297e-03 -2.902832393355e-01 9.569377151814e-01 -2.418723704730e-03 -2.902832014671e-01 9.569375720966e-01 -2.479124003376e-03 -2.902831602460e-01 9.569374238243e-01 -2.540425557515e-03 -2.902831166024e-01 9.569372700533e-01 -2.602575374108e-03 -2.902830711610e-01 9.569371106293e-01 -2.665501425394e-03 -2.902830242872e-01 9.569369455668e-01 -2.729106079899e-03 -2.902829744859e-01 9.569367755744e-01 -2.793255590602e-03 -2.902829202844e-01 9.569366015331e-01 -2.857767905471e-03 -2.902828437457e-01 9.569364295588e-01 -2.922398014621e-03 -2.902826870131e-01 9.569362781696e-01 -2.986828299494e-03 -2.902822349369e-01 9.569362138694e-01 -3.050682754477e-03 -2.902807329813e-01 9.569364666786e-01 -3.113647458930e-03 -2.902755653772e-01 9.569378294078e-01 -3.175971239911e-03 -2.902577688062e-01 9.569430119378e-01 -3.240301075654e-03 -2.901969318485e-01 9.569611959297e-01 -3.318166737920e-03 -2.899697828259e-01 9.570290879439e-01 -3.584672545639e-03 -3.824278268619e-01 9.239841528598e-01 -1.497499776587e-03 -3.826350771362e-01 9.238982435604e-01 -1.559900963601e-03 -3.826711689895e-01 9.238832241462e-01 -1.601426055921e-03 -3.826792940048e-01 9.238797884563e-01 -1.641469427129e-03 -3.826811984270e-01 9.238789249712e-01 -1.682963009079e-03 -3.826816840840e-01 9.238786439521e-01 -1.726243253969e-03 -3.826818301796e-01 9.238784984117e-01 -1.771164304074e-03 -3.826818836269e-01 9.238783862077e-01 -1.817537369506e-03 -3.826819052536e-01 9.238782822362e-01 -1.865208777798e-03 -3.826819124005e-01 9.238781793497e-01 -1.914064512913e-03 -3.826819072532e-01 9.238780766305e-01 -1.964022032935e-03 -3.826818944294e-01 9.238779721197e-01 -2.015020576796e-03 -3.826818745187e-01 9.238778655021e-01 -2.067014793850e-03 -3.826818487733e-01 9.238777561721e-01 -2.119969291833e-03 -3.826818162493e-01 9.238776444279e-01 -2.173853383718e-03 -3.826817797700e-01 9.238775290080e-01 -2.228637746285e-03 -3.826817382088e-01 9.238774102968e-01 -2.284290856127e-03 -3.826816923077e-01 9.238772879282e-01 -2.340773998356e-03 -3.826816426480e-01 9.238771616382e-01 -2.398037461887e-03 -3.826815899297e-01 9.238770311673e-01 -2.456015161293e-03 -3.826815346655e-01 9.238768964161e-01 -2.514616210832e-03 -3.826814758845e-01 9.238767580139e-01 -2.573716491166e-03 -3.826814090293e-01 9.238766182320e-01 -2.633147850350e-03 -3.826813136288e-01 9.238764861474e-01 -2.692683282433e-03 -3.826811107637e-01 9.238763953037e-01 -2.752029297576e-03 -3.826805175136e-01 9.238764639713e-01 -2.810842490593e-03 -3.826785403257e-01 9.238771046438e-01 -2.868848057313e-03 -3.826717331169e-01 9.238797439306e-01 -2.926333567075e-03 -3.826482848882e-01 9.238892650901e-01 -2.985954346774e-03 -3.825681160884e-01 9.239222252939e-01 -3.059111071618e-03 -3.822686641884e-01 9.240451595747e-01 -3.348349777355e-03 -4.710820976919e-01 8.820883453365e-01 -1.344713981077e-03 -4.713373192470e-01 8.819519053529e-01 -1.402900349404e-03 -4.713817591604e-01 8.819280932291e-01 -1.440661025970e-03 -4.713917793281e-01 8.819226777333e-01 -1.476780837058e-03 -4.713941440731e-01 8.819213504195e-01 -1.514136016451e-03 -4.713947638524e-01 8.819209514159e-01 -1.553082800881e-03 -4.713949624509e-01 8.819207731574e-01 -1.593502234399e-03 -4.713950460890e-01 8.819206520740e-01 -1.635227267525e-03 -4.713950912892e-01 8.819205473396e-01 -1.678120587210e-03 -4.713951151724e-01 8.819204498316e-01 -1.722080257438e-03 -4.713951237206e-01 8.819203563425e-01 -1.767031763234e-03 -4.713951238229e-01 8.819202631498e-01 -1.812920788505e-03 -4.713951131399e-01 8.819201714435e-01 -1.859706647118e-03 -4.713950931769e-01 8.819200803458e-01 -1.907357218030e-03 -4.713950675048e-01 8.819199878694e-01 -1.955844741753e-03 -4.713950342809e-01 8.819198949207e-01 -2.005142965327e-03 -4.713949934324e-01 8.819198014701e-01 -2.055223033672e-03 -4.713949484471e-01 8.819197056032e-01 -2.106050143082e-03 -4.713948979240e-01 8.819196080499e-01 -2.157579279061e-03 -4.713948410450e-01 8.819195092750e-01 -2.209750268588e-03 -4.713947822440e-01 8.819194070059e-01 -2.262480811918e-03 -4.713947171009e-01 8.819193037994e-01 -2.315658721449e-03 -4.713946402203e-01 8.819192028700e-01 -2.369130816375e-03 -4.713945278202e-01 8.819191174379e-01 -2.422692473719e-03 -4.713942812429e-01 8.819191009624e-01 -2.476079390802e-03 -4.713935520311e-01 8.819193406059e-01 -2.528985735658e-03 -4.713911182821e-01 8.819204902363e-01 -2.581183068300e-03 -4.713827391348e-01 8.819248156838e-01 -2.633007199402e-03 -4.713538757212e-01 8.819400791428e-01 -2.687125625978e-03 -4.712551763277e-01 8.819926132568e-01 -2.754803947494e-03 -4.708863317266e-01 8.821885820994e-01 -3.060752589569e-03 -5.551997268452e-01 8.317162274248e-01 -1.174882665218e-03 -5.555003921718e-01 8.315153668915e-01 -1.228381176481e-03 -5.555527270486e-01 8.314803514861e-01 -1.261967273565e-03 -5.555645498481e-01 8.314724031486e-01 -1.293736604180e-03 -5.555673626480e-01 8.314704720866e-01 -1.326502339217e-03 -5.555681189837e-01 8.314699115550e-01 -1.360642370292e-03 -5.555683789290e-01 8.314696791395e-01 -1.396068020204e-03 -5.555685017703e-01 8.314695348556e-01 -1.432636615504e-03 -5.555685753456e-01 8.314694200717e-01 -1.470229221562e-03 -5.555686241774e-01 8.314693184246e-01 -1.508757161479e-03 -5.555686549135e-01 8.314692254634e-01 -1.548155344786e-03 -5.555686717583e-01 8.314691383456e-01 -1.588376410580e-03 -5.555686757403e-01 8.314690563338e-01 -1.629384985362e-03 -5.555686700607e-01 8.314689772298e-01 -1.671152743258e-03 -5.555686538784e-01 8.314689015302e-01 -1.713655711309e-03 -5.555686283464e-01 8.314688284011e-01 -1.756870669139e-03 -5.555685946411e-01 8.314687570013e-01 -1.800771837951e-03 -5.555685532968e-01 8.314686869326e-01 -1.845328762133e-03 -5.555685041846e-01 8.314686182658e-01 -1.890501854283e-03 -5.555684490030e-01 8.314685498911e-01 -1.936237195385e-03 -5.555683872054e-01 8.314684822524e-01 -1.982462821331e-03 -5.555683176430e-01 8.314684162784e-01 -2.029079307466e-03 -5.555682342520e-01 8.314683562932e-01 -2.075951157157e-03 -5.555681036845e-01 8.314683249968e-01 -2.122897909692e-03 -5.555678128836e-01 8.314683985223e-01 -2.169688139270e-03 -5.555669540948e-01 8.314688500506e-01 -2.216058067044e-03 -5.555640841606e-01 8.314706444054e-01 -2.261831761331e-03 -5.555542126547e-01 8.314771149711e-01 -2.307396989987e-03 -5.555202286553e-01 8.314996857907e-01 -2.355437249386e-03 -5.554039938668e-01 8.315771529646e-01 -2.417077592917e-03 -5.549693485550e-01 8.318663064284e-01 -2.733202085787e-03 -6.339706548596e-01 7.733564634475e-01 -9.945958273307e-04 -6.343137553292e-01 7.730750104597e-01 -1.043073780976e-03 -6.343734387486e-01 7.730259960273e-01 -1.072229616430e-03 -6.343869479983e-01 7.730148714956e-01 -1.099388929609e-03 -6.343901930000e-01 7.730121682335e-01 -1.127292518978e-03 -6.343910894988e-01 7.730113895944e-01 -1.156339874104e-03 -6.343914157949e-01 7.730110761466e-01 -1.186473977736e-03 -6.343915851262e-01 7.730108888129e-01 -1.217578673565e-03 -6.343916955861e-01 7.730107471340e-01 -1.249554624449e-03 -6.343917735443e-01 7.730106294851e-01 -1.282326937888e-03 -6.343918305890e-01 7.730105263475e-01 -1.315841154156e-03 -6.343918702317e-01 7.730104348123e-01 -1.350057463894e-03 -6.343918940258e-01 7.730103535661e-01 -1.384945470976e-03 -6.343919042496e-01 7.730102806916e-01 -1.420481520303e-03 -6.343919020978e-01 7.730102151565e-01 -1.456645575670e-03 -6.343918885055e-01 7.730101561446e-01 -1.493417458857e-03 -6.343918643585e-01 7.730101028850e-01 -1.530775448807e-03 -6.343918285719e-01 7.730100562354e-01 -1.568693761901e-03 -6.343917846138e-01 7.730100133387e-01 -1.607138030595e-03 -6.343917314107e-01 7.730099750954e-01 -1.646062195640e-03 -6.343916680661e-01 7.730099423042e-01 -1.685404165182e-03 -6.343915945265e-01 7.730099151358e-01 -1.725078512904e-03 -6.343915017397e-01 7.730099012332e-01 -1.764969097985e-03 -6.343913528437e-01 7.730099311757e-01 -1.804921290338e-03 -6.343910180819e-01 7.730101119123e-01 -1.844737993398e-03 -6.343900293421e-01 7.730108281629e-01 -1.884201225795e-03 -6.343867467036e-01 7.730134261112e-01 -1.923189723904e-03 -6.343754830006e-01 7.730225718256e-01 -1.962145712037e-03 -6.343367230064e-01 7.730542715503e-01 -2.003767291382e-03 -6.342041364526e-01 7.731629024180e-01 -2.059036403550e-03 -6.337079397549e-01 7.735687359961e-01 -2.378609050026e-03 -7.066363461371e-01 7.075764388261e-01 -8.108859818582e-04 -7.070183888442e-01 7.071946466621e-01 -8.541478643765e-04 -7.070847766951e-01 7.071282389451e-01 -8.787788882165e-04 -7.070998370183e-01 7.071131509490e-01 -9.012455994093e-04 -7.071034890028e-01 7.071094693821e-01 -9.242024922363e-04 -7.071045271119e-01 7.071083996839e-01 -9.480687672001e-04 -7.071049275298e-01 7.071079656502e-01 -9.728191356621e-04 -7.071051480191e-01 7.071077095557e-01 -9.983645137234e-04 -7.071052977836e-01 7.071075222261e-01 -1.024625598614e-03 -7.071054113727e-01 7.071073691222e-01 -1.051542004317e-03 -7.071054977760e-01 7.071072412467e-01 -1.079069700350e-03 -7.071055613504e-01 7.071071342217e-01 -1.107176636303e-03 -7.071056077013e-01 7.071070424119e-01 -1.135838400555e-03 -7.071056375346e-01 7.071069650755e-01 -1.165035894069e-03 -7.071056502579e-01 7.071069027661e-01 -1.194752598629e-03 -7.071056501824e-01 7.071068511354e-01 -1.224972450165e-03 -7.071056365639e-01 7.071068108944e-01 -1.255677630595e-03 -7.071056088650e-01 7.071067825570e-01 -1.286846322439e-03 -7.071055688919e-01 7.071067643083e-01 -1.318450381828e-03 -7.071055171908e-01 7.071067556160e-01 -1.350451977960e-03 -7.071054524858e-01 7.071067578038e-01 -1.382798989159e-03 -7.071053731099e-01 7.071067726331e-01 -1.415420607233e-03 -7.071052671963e-01 7.071068121297e-01 -1.448220669617e-03 -7.071050965421e-01 7.071069147403e-01 -1.481070770442e-03 -7.071047136714e-01 7.071072282793e-01 -1.513809355242e-03 -7.071035969288e-01 7.071082747898e-01 -1.546264596131e-03 -7.070999253777e-01 7.071118753611e-01 -1.578370720462e-03 -7.070873793478e-01 7.071243482284e-01 -1.610624015512e-03 -7.070442506531e-01 7.071673912077e-01 -1.645731086125e-03 -7.068966933613e-01 7.073147768075e-01 -1.694527824057e-03 -7.063438069105e-01 7.078660765405e-01 -2.011000334438e-03 7.724971293653e-01 -6.350179422667e-01 6.309688492841e-04 7.729141149335e-01 -6.345103020900e-01 6.689380920645e-04 7.729864499127e-01 -6.344221570704e-01 6.891077089195e-04 7.730029016879e-01 -6.344020918663e-01 7.069779011627e-04 7.730069322993e-01 -6.343971601890e-01 7.250940407347e-04 7.730081130978e-01 -6.343956996326e-01 7.438902250862e-04 7.730085926487e-01 -6.343950921579e-01 7.633723230761e-04 7.730088676037e-01 -6.343947326146e-01 7.834774366447e-04 7.730090618737e-01 -6.343944700349e-01 8.041456644824e-04 7.730092117307e-01 -6.343942602262e-01 8.253311637238e-04 7.730093282755e-01 -6.343940896550e-01 8.470004851562e-04 7.730094187343e-01 -6.343939495007e-01 8.691288872135e-04 7.730094872114e-01 -6.343938347396e-01 8.916981430763e-04 7.730095349158e-01 -6.343937438727e-01 9.146936093755e-04 7.730095650635e-01 -6.343936729542e-01 9.381023666014e-04 7.730095773974e-01 -6.343936222700e-01 9.619121740280e-04 7.730095729899e-01 -6.343935904897e-01 9.861093011429e-04 7.730095533541e-01 -6.343935757528e-01 1.010676456779e-03 7.730095175096e-01 -6.343935792468e-01 1.035591577880e-03 7.730094647555e-01 -6.343936018353e-01 1.060824591272e-03 7.730093965742e-01 -6.343936417450e-01 1.086333970779e-03 7.730093075344e-01 -6.343937056598e-01 1.112063160635e-03 7.730091844743e-01 -6.343938097282e-01 1.137935359151e-03 7.730089841103e-01 -6.343940068616e-01 1.163848287917e-03 7.730085454692e-01 -6.343944934375e-01 1.189675497604e-03 7.730072997097e-01 -6.343959628382e-01 1.215290126316e-03 7.730032646723e-01 -6.344008303257e-01 1.240680489098e-03 7.729895580615e-01 -6.344174803542e-01 1.266392103495e-03 7.729425301732e-01 -6.344747179332e-01 1.295126646123e-03 7.727815975119e-01 -6.346706338267e-01 1.337574322806e-03 7.721774742521e-01 -6.354047859966e-01 1.645050250836e-03 8.309190182541e-01 -5.563931808331e-01 4.619804901214e-04 8.313663506148e-01 -5.557245238217e-01 4.946600897759e-04 8.314437268025e-01 -5.556087368612e-01 5.105725105412e-04 8.314613887640e-01 -5.555822930018e-01 5.241159254833e-04 8.314657704189e-01 -5.555757225772e-01 5.376843947773e-04 8.314670944985e-01 -5.555737272190e-01 5.517156145864e-04 8.314676579157e-01 -5.555728693940e-01 5.662451084223e-04 8.314679937289e-01 -5.555723513364e-01 5.812357578731e-04 8.314682359581e-01 -5.555719724803e-01 5.966464608055e-04 8.314684231796e-01 -5.555716750939e-01 6.124447005494e-04 8.314685709608e-01 -5.555714358733e-01 6.286064717902e-04 8.314686875484e-01 -5.555712424648e-01 6.451144007690e-04 8.314687764142e-01 -5.555710896572e-01 6.619557676306e-04 8.314688431840e-01 -5.555709690126e-01 6.791204216996e-04 8.314688885758e-01 -5.555708794382e-01 6.965994084089e-04 8.314689120051e-01 -5.555708217901e-01 7.143840626002e-04 8.314689173112e-01 -5.555707903060e-01 7.324643672752e-04 8.314689039878e-01 -5.555707857322e-01 7.508277594250e-04 8.314688689485e-01 -5.555708126821e-01 7.694577476673e-04 8.314688140932e-01 -5.555708683178e-01 7.883317876971e-04 8.314687378965e-01 -5.555709549427e-01 8.074185930817e-04 8.314686322040e-01 -5.555710848030e-01 8.266750662623e-04 8.314684831469e-01 -5.555712787265e-01 8.460423006943e-04 8.314682433806e-01 -5.555716076782e-01 8.654429673124e-04 8.314677362777e-01 -5.555723361417e-01 8.847842576129e-04 8.314663555416e-01 -5.555743716333e-01 9.039838259879e-04 8.314619775169e-01 -5.555808922785e-01 9.230811508068e-04 8.314472418845e-01 -5.556029115840e-01 9.426569065977e-04 8.313968534648e-01 -5.556782703118e-01 9.653766132421e-04 8.312244115630e-01 -5.559361240467e-01 1.001799268353e-03 8.305750957241e-01 -5.569051368043e-01 1.295748395842e-03 8.813400301857e-01 -4.724824384429e-01 3.107334718677e-04 8.818122384519e-01 -4.716005319920e-01 3.381439945875e-04 8.818934932825e-01 -4.714485591647e-01 3.500963483370e-04 8.819121833314e-01 -4.714135885648e-01 3.597333097808e-04 8.819169135698e-01 -4.714047318701e-01 3.692290459943e-04 8.819183896628e-01 -4.714019625992e-01 3.789882884987e-04 8.819190427816e-01 -4.714007325037e-01 3.890683720744e-04 8.819194457920e-01 -4.713999698407e-01 3.994598295664e-04 8.819197430205e-01 -4.713994045966e-01 4.101422566909e-04 8.819199749929e-01 -4.713989609516e-01 4.210964424731e-04 8.819201585209e-01 -4.713986074492e-01 4.323070621995e-04 8.819203038064e-01 -4.713983249955e-01 4.437627683381e-04 8.819204160010e-01 -4.713981039430e-01 4.554552482984e-04 8.819205005298e-01 -4.713979341309e-01 4.673782379758e-04 8.819205610391e-01 -4.713978087252e-01 4.795264706716e-04 8.819205976113e-01 -4.713977275598e-01 4.918946215319e-04 8.819206111993e-01 -4.713976888416e-01 5.044765661741e-04 8.819206015798e-01 -4.713976929801e-01 5.172642047456e-04 8.819205669175e-01 -4.713977434047e-01 5.302461017492e-04 8.819205041421e-01 -4.713978458623e-01 5.434060539046e-04 8.819204101023e-01 -4.713980062605e-01 5.567213493107e-04 8.819202788814e-01 -4.713982356931e-01 5.701606215278e-04 8.819200939559e-01 -4.713985651141e-01 5.836823667409e-04 8.819198000689e-01 -4.713990979591e-01 5.972350678956e-04 8.819192087675e-01 -4.714001868653e-01 6.107620287201e-04 8.819176676240e-01 -4.714030524676e-01 6.242249254478e-04 8.819129288235e-01 -4.714118998432e-01 6.376991751302e-04 8.818972742347e-01 -4.714411659071e-01 6.517558073935e-04 8.818441760650e-01 -4.715404559795e-01 6.689655893646e-04 8.816625374972e-01 -4.718799425282e-01 6.998667747117e-04 8.809747307208e-01 -4.731623042813e-01 9.785901548241e-04 9.232762146813e-01 -3.841366914724e-01 1.834894926488e-04 9.237662106615e-01 -3.829568458218e-01 2.056167775692e-04 9.238494749533e-01 -3.827559298848e-01 2.139311210712e-04 9.238690129192e-01 -3.827087646094e-01 2.201336708785e-04 9.238742726010e-01 -3.826960638300e-01 2.261747205799e-04 9.238760267517e-01 -3.826918253749e-01 2.323462375071e-04 9.238768057302e-01 -3.826899409016e-01 2.386765373609e-04 9.238772726947e-01 -3.826888094658e-01 2.451692000039e-04 9.238776173095e-01 -3.826879731812e-01 2.518274180754e-04 9.238778961888e-01 -3.826872953638e-01 2.586521691762e-04 9.238781267025e-01 -3.826867340727e-01 2.656416669097e-04 9.238783147430e-01 -3.826862750764e-01 2.727925707289e-04 9.238784633366e-01 -3.826859110630e-01 2.801010502041e-04 9.238785756549e-01 -3.826856343700e-01 2.875634382007e-04 9.238786543270e-01 -3.826854386436e-01 2.951763597180e-04 9.238787003731e-01 -3.826853214152e-01 3.029361656788e-04 9.238787152248e-01 -3.826852792231e-01 3.108384303373e-04 9.238786988900e-01 -3.826853120444e-01 3.188773943119e-04 9.238786507292e-01 -3.826854214210e-01 3.270452134634e-04 9.238785717197e-01 -3.826856049944e-01 3.353316042136e-04 9.238784600737e-01 -3.826858670838e-01 3.437238842098e-04 9.238783078048e-01 -3.826862269769e-01 3.522072997675e-04 9.238780892661e-01 -3.826867465987e-01 3.607653809876e-04 9.238777221366e-01 -3.826876247002e-01 3.693791560644e-04 9.238769648411e-01 -3.826894445024e-01 3.780243858530e-04 9.238750939613e-01 -3.826939524480e-01 3.866753199915e-04 9.238697988543e-01 -3.827067264209e-01 3.953696041338e-04 9.238532920746e-01 -3.827465624162e-01 4.045757619130e-04 9.237985363860e-01 -3.828786889608e-01 4.167861172246e-04 9.236110124632e-01 -3.833307988744e-01 4.430473337061e-04 9.228922082824e-01 -3.850577420553e-01 7.121620970891e-04 9.563281838419e-01 -2.922950520164e-01 8.576949864716e-05 9.568258244290e-01 -2.906618846837e-01 1.024587620715e-04 9.569066717792e-01 -2.903956092961e-01 1.077309919524e-04 9.569259899502e-01 -2.903319435966e-01 1.108389415911e-04 9.569323755369e-01 -2.903108948608e-01 1.139056763598e-04 9.569353149666e-01 -2.903012043298e-01 1.171937509771e-04 9.569368706433e-01 -2.902960748123e-01 1.206320833749e-04 9.569377115762e-01 -2.902933012478e-01 1.241526521709e-04 9.569381719106e-01 -2.902917822222e-01 1.277286234211e-04 9.569384405672e-01 -2.902908949823e-01 1.313587504302e-04 9.569386175455e-01 -2.902903098816e-01 1.350515667961e-04 9.569387477215e-01 -2.902898789816e-01 1.388166468720e-04 9.569388480160e-01 -2.902895464973e-01 1.426611172145e-04 9.569389229862e-01 -2.902892974012e-01 1.465889831985e-04 9.569389725925e-01 -2.902891318198e-01 1.506017060181e-04 9.569389987197e-01 -2.902890435369e-01 1.546991554049e-04 9.569390047056e-01 -2.902890215457e-01 1.588808385224e-04 9.569389935045e-01 -2.902890561039e-01 1.631470559465e-04 9.569389653883e-01 -2.902891463098e-01 1.674998661693e-04 9.569389106737e-01 -2.902893240786e-01 1.719437808592e-04 9.569387986954e-01 -2.902896904895e-01 1.764850936533e-04 9.569385657181e-01 -2.902904556370e-01 1.811283745982e-04 9.569380984052e-01 -2.902919931271e-01 1.858680432592e-04 9.569372117667e-01 -2.902949127702e-01 1.906722947565e-04 9.569356031392e-01 -2.903002122619e-01 1.954615606820e-04 9.569326454652e-01 -2.903099584943e-01 2.001050020739e-04 9.569264495885e-01 -2.903303777522e-01 2.045292662162e-04 9.569100195954e-01 -2.903845219951e-01 2.092454574825e-04 9.568567443042e-01 -2.905600173396e-01 2.172628922986e-04 9.566687683887e-01 -2.911783116897e-01 2.416425526209e-04 9.559268943508e-01 -2.936042947584e-01 5.392181897506e-04 9.801877163440e-01 -1.980707958972e-01 2.325854402469e-05 9.806836490274e-01 -1.956005610491e-01 3.236494461181e-05 9.807528773140e-01 -1.952531493084e-01 3.640723345428e-05 9.807634029411e-01 -1.952002716201e-01 3.756008327609e-05 9.807670987919e-01 -1.951817011911e-01 3.804609699826e-05 9.807713461411e-01 -1.951603573821e-01 3.866723814984e-05 9.807757782863e-01 -1.951380822935e-01 3.957050032189e-05 9.807795500426e-01 -1.951191240250e-01 4.071877794374e-05 9.807823207586e-01 -1.951051960346e-01 4.204378106580e-05 9.807841166538e-01 -1.950961676421e-01 4.348631429612e-05 9.807851246450e-01 -1.950910998732e-01 4.500381566026e-05 9.807855656435e-01 -1.950888824525e-01 4.656915851996e-05 9.807856349950e-01 -1.950885334081e-01 4.816752841257e-05 9.807854812640e-01 -1.950893058636e-01 4.979320770160e-05 9.807852007522e-01 -1.950907156650e-01 5.144660332050e-05 9.807848389472e-01 -1.950925341173e-01 5.313149642446e-05 9.807843929326e-01 -1.950947758680e-01 5.485222040951e-05 9.807838172789e-01 -1.950976692817e-01 5.661038925262e-05 9.807830281578e-01 -1.951016357361e-01 5.840081970948e-05 9.807819108611e-01 -1.951072517948e-01 6.020616531169e-05 9.807803409006e-01 -1.951151430824e-01 6.199022085383e-05 9.807782197468e-01 -1.951258045819e-01 6.369101120769e-05 9.807755368566e-01 -1.951392888438e-01 6.521716656686e-05 9.807724646386e-01 -1.951547288441e-01 6.645681487593e-05 9.807694408365e-01 -1.951699243980e-01 6.731808149299e-05 9.807670276180e-01 -1.951820507518e-01 6.783596315949e-05 9.807647664578e-01 -1.951934122732e-01 6.841213499876e-05 9.807563950745e-01 -1.952354695407e-01 7.038278962231e-05 9.807130124558e-01 -1.954532709570e-01 7.792361017991e-05 9.805275487017e-01 -1.963815521802e-01 1.104554321882e-04 9.797574922437e-01 -2.001480964247e-01 3.999486202977e-03 9.944565856120e-01 -1.051479877723e-01 -5.787064648344e-07 9.951175416017e-01 -9.869690165636e-02 2.563328693140e-07 9.952511343124e-01 -9.734053446347e-02 5.638900790169e-07 9.952649101483e-01 -9.719958141353e-02 7.029821577354e-07 9.952484200018e-01 -9.736828273865e-02 7.291027816622e-07 9.952276082420e-01 -9.758077573237e-02 6.817817810778e-07 9.952095689919e-01 -9.776458349879e-02 5.989723529609e-07 9.951956223885e-01 -9.790645115928e-02 5.084843284251e-07 9.951853973923e-01 -9.801033015408e-02 4.254515418893e-07 9.951781431011e-01 -9.808396145041e-02 3.557822112355e-07 9.951731394163e-01 -9.813471650903e-02 3.004347225895e-07 9.951698079361e-01 -9.816849480524e-02 2.583192145875e-07 9.951677243333e-01 -9.818961475245e-02 2.278203749431e-07 9.951666011757e-01 -9.820099747108e-02 2.074723131554e-07 9.951662685025e-01 -9.820436871488e-02 1.962158361135e-07 9.951666593680e-01 -9.820040774984e-02 1.934759433108e-07 9.951678002725e-01 -9.818884509366e-02 1.991793337194e-07 9.951698088432e-01 -9.816848560948e-02 2.137712086333e-07 9.951728974101e-01 -9.813717063557e-02 2.382603179518e-07 9.951773786265e-01 -9.809171764277e-02 2.743265145115e-07 9.951836676110e-01 -9.802789256212e-02 3.245317868367e-07 9.951922697210e-01 -9.794052423450e-02 3.927215449946e-07 9.952037255931e-01 -9.782404901370e-02 4.848089190814e-07 9.952184467412e-01 -9.767416887663e-02 6.103608120172e-07 9.952362891584e-01 -9.749219836303e-02 7.860841013554e-07 9.952554805528e-01 -9.729608639892e-02 1.044454981760e-06 9.952699245762e-01 -9.714822299961e-02 1.459389727754e-06 9.952622701048e-01 -9.722661004423e-02 2.251066662697e-06 9.951853037056e-01 -9.801128132300e-02 4.661591932606e-06 5.286435764014e-06 -5.464576529124e-07 9.999999999859e-01 2.382856965560e-04 -2.700336268249e-05 9.999999712454e-01 9.999715013772e-01 7.549597750484e-03 -2.686800570057e-06 9.999961182588e-01 -2.786299949317e-03 8.968118615941e-08 9.999893779220e-01 -4.609126047702e-03 5.414111835817e-07 9.999900184486e-01 -4.467997528957e-03 1.150039596248e-06 9.999926127419e-01 -3.843755643809e-03 2.057157818124e-06 9.999949589128e-01 -3.175236776695e-03 4.526204058423e-06 2.937567045039e-05 -8.667992070686e-08 9.999999995685e-01 3.097960448271e-06 -1.544870560438e-08 9.999999999952e-01 1.491102434683e-06 -1.006739520996e-08 9.999999999989e-01 9.156202102554e-07 -7.668983734454e-09 9.999999999996e-01 6.297279793776e-07 -6.238210418924e-09 9.999999999998e-01 4.680452634188e-07 -5.304330581080e-09 9.999999999999e-01 3.724220317419e-07 -4.691994130365e-09 9.999999999999e-01 3.175625922926e-07 -4.321633929723e-09 9.999999999999e-01 2.916078520376e-07 -4.156747347072e-09 1.000000000000e+00 2.897620126383e-07 -4.186373449213e-09 1.000000000000e+00 3.122307867094e-07 -4.419484651265e-09 1.000000000000e+00 3.642487934484e-07 -4.885400556020e-09 9.999999999999e-01 4.580951192752e-07 -5.639727020594e-09 9.999999999999e-01 6.186974009633e-07 -6.779962117245e-09 9.999999999998e-01 8.989867226476e-07 -8.485871663623e-09 9.999999999996e-01 1.430617899885e-06 -1.114737544824e-08 9.999999999990e-01 2.663299169514e-06 -1.595546544241e-08 9.999999999965e-01 7.976846564498e-06 -3.131001490321e-08 9.999999999682e-01 9.999964982701e-01 -2.646369341908e-03 1.329646269085e-05 9.999949545397e-01 -3.176614534008e-03 3.894359233436e-06 9.999931224185e-01 -3.708788381147e-03 2.131030488080e-06 9.999917594810e-01 -4.059675940928e-03 1.181137903309e-06 9.999930050358e-01 -3.740304702741e-03 4.736602807030e-07 9.999988845724e-01 -1.493604339830e-03 3.165493995270e-08 9.999808565290e-01 6.187613224293e-03 -4.263939370605e-06 
        </DataArray>
      </PointData>
      <CellData>
        <DataArray type="Int32" Name="MatGroup" format="ascii">
          0 0 0 0 0 0 0 0 0 0 0 0 0 0 0 0 0 0 0 0 0 0 0 0 0 0 0 0 0 0 0 0 0 0 0 0 0 0 0 0 0 0 0 0 0 0 0 0 0 0 0 0 0 0 0 0 0 0 0 0 0 0 0 0 0 0 0 0 0 0 0 0 0 0 0 0 0 0 0 0 0 0 0 0 0 0 0 0 0 0 0 0 0 0 0 0 0 0 0 0 0 0 0 0 0 0 0 0 0 0 0 0 0 0 0 0 0 0 0 0 0 0 0 0 0 0 0 0 0 0 0 0 0 0 0 0 0 0 0 0 0 0 0 0 0 0 0 0 0 0 0 0 0 0 0 0 0 0 0 0 0 0 0 0 0 0 0 0 0 0 0 0 0 0 0 0 0 0 0 0 0 0 0 0 0 0 0 0 0 0 0 0 0 0 0 0 0 0 0 0 0 0 0 0 0 0 0 0 0 0 0 0 0 0 0 0 0 0 0 0 0 0 0 0 0 0 0 0 0 0 0 0 0 0 0 0 0 0 0 0 0 0 0 0 0 0 0 0 0 0 0 0 0 0 0 0 0 0 0 0 0 0 0 0 0 0 0 0 0 0 0 0 0 0 0 0 0 0 0 0 0 0 0 0 0 0 0 0 0 0 0 0 0 0 0 0 0 0 0 0 0 0 0 0 0 0 0 0 0 0 0 0 0 0 0 0 0 0 0 0 0 0 0 0 0 0 0 0 0 0 0 0 0 0 0 0 0 0 0 0 0 0 0 0 0 0 0 0 0 0 0 0 0 0 0 0 0 0 0 0 0 0 0 0 0 0 0 0 0 0 0 0 0 0 0 0 0 0 0 0 0 0 0 0 0 0 0 0 0 0 0 0 0 0 0 0 0 0 0 0 0 0 0 0 0 0 0 0 0 0 0 0 0 0 0 0 0 0 0 0 0 0 0 0 0 0 0 0 0 0 0 0 0 0 0 0 0 0 0 0 0 0 0 0 0 0 0 0 0 0 0 0 0 0 0 0 0 0 0 0 0 0 0 0 0 0 0 0 0 0 0 0 0 0 0 0 0 0 0 0 
        </DataArray>
      </CellData>
    </Piece>
  </UnstructuredGrid>
</VTKFile>
