<?xml version="1.0"?>
<!-- Time step: 1 | Time: 1.000000000000e+00 -->
<VTKFile type="UnstructuredGrid" version="0.1" byte_order="LittleEndian">
  <UnstructuredGrid>
    <Piece NumberOfPoints="527" NumberOfCells="480">
      <Points>
        <DataArray type="Float64" NumberOfComponents="3" format="ascii">
          1.750000000000e-01 0.000000000000e+00 0.000000000000e+00
          1.766666666667e-01 0.000000000000e+00 0.000000000000e+00
          1.783333333333e-01 0.000000000000e+00 0.000000000000e+00
          1.800000000000e-01 0.000000000000e+00 0.000000000000e+00
          1.816666666667e-01 0.000000000000e+00 0.000000000000e+00
          1.833333333333e-01 0.000000000000e+00 0.000000000000e+00
          1.850000000000e-01 0.000000000000e+00 0.000000000000e+00
          1.866666666667e-01 0.000000000000e+00 0.000000000000e+00
          1.883333333333e-01 0.000000000000e+00 0.000000000000e+00
          1.900000000000e-01 0.000000000000e+00 0.000000000000e+00
          1.916666666667e-01 0.000000000000e+00 0.000000000000e+00
          1.933333333333e-01 0.000000000000e+00 0.000000000000e+00
          1.950000000000e-01 0.000000000000e+00 0.000000000000e+00
          1.966666666667e-01 0.000000000000e+00 0.000000000000e+00
          1.983333333333e-01 0.000000000000e+00 0.000000000000e+00
          2.000000000000e-01 0.000000000000e+00 0.000000000000e+00
          2.016666666667e-01 0.000000000000e+00 0.000000000000e+00
          2.033333333333e-01 0.000000000000e+00 0.000000000000e+00
          2.050000000000e-01 0.000000000000e+00 0.000000000000e+00
          2.066666666667e-01 0.000000000000e+00 0.000000000000e+00
          2.083333333333e-01 0.000000000000e+00 0.000000000000e+00
          2.100000000000e-01 0.000000000000e+00 0.000000000000e+00
          2.116666666667e-01 0.000000000000e+00 0.000000000000e+00
          2.133333333333e-01 0.000000000000e+00 0.000000000000e+00
          2.150000000000e-01 0.000000000000e+00 0.000000000000e+00
          2.166666666667e-01 0.000000000000e+00 0.000000000000e+00
          2.183333333333e-01 0.000000000000e+00 0.000000000000e+00
          2.200000000000e-01 0.000000000000e+00 0.000000000000e+00
          2.216666666667e-01 0.000000000000e+00 0.000000000000e+00
          2.233333333333e-01 0.000000000000e+00 0.000000000000e+00
          2.250000000000e-01 0.000000000000e+00 0.000000000000e+00
          1.741573271428e-01 1.715299981026e-02 0.000000000000e+00
          1.758159683536e-01 1.731636171321e-02 0.000000000000e+00
          1.774746095645e-01 1.747972361617e-02 0.000000000000e+00
          1.791332507754e-01 1.764308551912e-02 0.000000000000e+00
          1.807918919863e-01 1.780644742208e-02 0.000000000000e+00
          1.824505331972e-01 1.796980932503e-02 0.000000000000e+00
          1.841091744081e-01 1.813317122799e-02 0.000000000000e+00
          1.857678156189e-01 1.829653313094e-02 0.000000000000e+00
          1.874264568298e-01 1.845989503390e-02 0.000000000000e+00
          1.890850980407e-01 1.862325693685e-02 0.000000000000e+00
          1.907437392516e-01 1.878661883981e-02 0.000000000000e+00
          1.924023804625e-01 1.894998074276e-02 0.000000000000e+00
          1.940610216734e-01 1.911334264571e-02 0.000000000000e+00
          1.957196628842e-01 1.927670454867e-02 0.000000000000e+00
          1.973783040951e-01 1.944006645162e-02 0.000000000000e+00
          1.990369453060e-01 1.960342835458e-02 0.000000000000e+00
          2.006955865169e-01 1.976679025753e-02 0.000000000000e+00
          2.023542277278e-01 1.993015216049e-02 0.000000000000e+00
          2.040128689387e-01 2.009351406344e-02 0.000000000000e+00
          2.056715101495e-01 2.025687596640e-02 0.000000000000e+00
          2.073301513604e-01 2.042023786935e-02 0.000000000000e+00
          2.089887925713e-01 2.058359977231e-02 0.000000000000e+00
          2.106474337822e-01 2.074696167526e-02 0.000000000000e+00
          2.123060749931e-01 2.091032357822e-02 0.000000000000e+00
          2.139647162040e-01 2.107368548117e-02 0.000000000000e+00
          2.156233574148e-01 2.123704738413e-02 0.000000000000e+00
          2.172819986257e-01 2.140040928708e-02 0.000000000000e+00
          2.189406398366e-01 2.156377119004e-02 0.000000000000e+00
          2.205992810475e-01 2.172713309299e-02 0.000000000000e+00
          2.222579222584e-01 2.189049499595e-02 0.000000000000e+00
          2.239165634693e-01 2.205385689890e-02 0.000000000000e+00
          1.716374239715e-01 3.414080685068e-02 0.000000000000e+00
          1.732720661046e-01 3.446595739212e-02 0.000000000000e+00
          1.749067082377e-01 3.479110793355e-02 0.000000000000e+00
          1.765413503707e-01 3.511625847499e-02 0.000000000000e+00
          1.781759925038e-01 3.544140901642e-02 0.000000000000e+00
          1.798106346368e-01 3.576655955786e-02 0.000000000000e+00
          1.814452767699e-01 3.609171009929e-02 0.000000000000e+00
          1.830799189030e-01 3.641686064073e-02 0.000000000000e+00
          1.847145610360e-01 3.674201118216e-02 0.000000000000e+00
          1.863492031691e-01 3.706716172360e-02 0.000000000000e+00
          1.879838453022e-01 3.739231226503e-02 0.000000000000e+00
          1.896184874352e-01 3.771746280647e-02 0.000000000000e+00
          1.912531295683e-01 3.804261334790e-02 0.000000000000e+00
          1.928877717013e-01 3.836776388934e-02 0.000000000000e+00
          1.945224138344e-01 3.869291443077e-02 0.000000000000e+00
          1.961570559675e-01 3.901806497221e-02 0.000000000000e+00
          1.977916981005e-01 3.934321551364e-02 0.000000000000e+00
          1.994263402336e-01 3.966836605508e-02 0.000000000000e+00
          2.010609823667e-01 3.999351659651e-02 0.000000000000e+00
          2.026956244997e-01 4.031866713795e-02 0.000000000000e+00
          2.043302666328e-01 4.064381767938e-02 0.000000000000e+00
          2.059649087658e-01 4.096896822082e-02 0.000000000000e+00
          2.075995508989e-01 4.129411876225e-02 0.000000000000e+00
          2.092341930320e-01 4.161926930369e-02 0.000000000000e+00
          2.108688351650e-01 4.194441984512e-02 0.000000000000e+00
          2.125034772981e-01 4.226957038656e-02 0.000000000000e+00
          2.141381194312e-01 4.259472092799e-02 0.000000000000e+00
          2.157727615642e-01 4.291987146943e-02 0.000000000000e+00
          2.174074036973e-01 4.324502201086e-02 0.000000000000e+00
          2.190420458303e-01 4.357017255230e-02 0.000000000000e+00
          2.206766879634e-01 4.389532309373e-02 0.000000000000e+00
          1.674645585321e-01 5.079981924816e-02 0.000000000000e+00
          1.690594590896e-01 5.128362705053e-02 0.000000000000e+00
          1.706543596470e-01 5.176743485289e-02 0.000000000000e+00
          1.722492602045e-01 5.225124265525e-02 0.000000000000e+00
          1.738441607619e-01 5.273505045762e-02 0.000000000000e+00
          1.754390613194e-01 5.321885825998e-02 0.000000000000e+00
          1.770339618768e-01 5.370266606234e-02 0.000000000000e+00
          1.786288624342e-01 5.418647386471e-02 0.000000000000e+00
          1.802237629917e-01 5.467028166707e-02 0.000000000000e+00
          1.818186635491e-01 5.515408946943e-02 0.000000000000e+00
          1.834135641066e-01 5.563789727180e-02 0.000000000000e+00
          1.850084646640e-01 5.612170507416e-02 0.000000000000e+00
          1.866033652215e-01 5.660551287652e-02 0.000000000000e+00
          1.881982657789e-01 5.708932067889e-02 0.000000000000e+00
          1.897931663364e-01 5.757312848125e-02 0.000000000000e+00
          1.913880668938e-01 5.805693628361e-02 0.000000000000e+00
          1.929829674513e-01 5.854074408598e-02 0.000000000000e+00
          1.945778680087e-01 5.902455188834e-02 0.000000000000e+00
          1.961727685662e-01 5.950835969070e-02 0.000000000000e+00
          1.977676691236e-01 5.999216749307e-02 0.000000000000e+00
          1.993625696811e-01 6.047597529543e-02 0.000000000000e+00
          2.009574702385e-01 6.095978309779e-02 0.000000000000e+00
          2.025523707960e-01 6.144359090016e-02 0.000000000000e+00
          2.041472713534e-01 6.192739870252e-02 0.000000000000e+00
          2.057421719109e-01 6.241120650488e-02 0.000000000000e+00
          2.073370724683e-01 6.289501430725e-02 0.000000000000e+00
          2.089319730258e-01 6.337882210961e-02 0.000000000000e+00
          2.105268735832e-01 6.386262991198e-02 0.000000000000e+00
          2.121217741407e-01 6.434643771434e-02 0.000000000000e+00
          2.137166746981e-01 6.483024551670e-02 0.000000000000e+00
          2.153115752556e-01 6.531405331907e-02 0.000000000000e+00
          1.616789178010e-01 6.696960160183e-02 0.000000000000e+00
          1.632187170181e-01 6.760740733138e-02 0.000000000000e+00
          1.647585162353e-01 6.824521306092e-02 0.000000000000e+00
          1.662983154524e-01 6.888301879046e-02 0.000000000000e+00
          1.678381146696e-01 6.952082452000e-02 0.000000000000e+00
          1.693779138867e-01 7.015863024954e-02 0.000000000000e+00
          1.709177131039e-01 7.079643597908e-02 0.000000000000e+00
          1.724575123210e-01 7.143424170862e-02 0.000000000000e+00
          1.739973115382e-01 7.207204743817e-02 0.000000000000e+00
          1.755371107553e-01 7.270985316771e-02 0.000000000000e+00
          1.770769099725e-01 7.334765889725e-02 0.000000000000e+00
          1.786167091896e-01 7.398546462679e-02 0.000000000000e+00
          1.801565084068e-01 7.462327035633e-02 0.000000000000e+00
          1.816963076239e-01 7.526107608587e-02 0.000000000000e+00
          1.832361068411e-01 7.589888181541e-02 0.000000000000e+00
          1.847759060582e-01 7.653668754495e-02 0.000000000000e+00
          1.863157052754e-01 7.717449327450e-02 0.000000000000e+00
          1.878555044926e-01 7.781229900404e-02 0.000000000000e+00
          1.893953037097e-01 7.845010473358e-02 0.000000000000e+00
          1.909351029269e-01 7.908791046312e-02 0.000000000000e+00
          1.924749021440e-01 7.972571619266e-02 0.000000000000e+00
          1.940147013612e-01 8.036352192220e-02 0.000000000000e+00
          1.955545005783e-01 8.100132765174e-02 0.000000000000e+00
          1.970942997955e-01 8.163913338128e-02 0.000000000000e+00
          1.986340990126e-01 8.227693911083e-02 0.000000000000e+00
          2.001738982298e-01 8.291474484037e-02 0.000000000000e+00
          2.017136974469e-01 8.355255056991e-02 0.000000000000e+00
          2.032534966641e-01 8.419035629945e-02 0.000000000000e+00
          2.047932958812e-01 8.482816202899e-02 0.000000000000e+00
          2.063330950984e-01 8.546596775853e-02 0.000000000000e+00
          2.078728943155e-01 8.610377348807e-02 0.000000000000e+00
          1.543362206627e-01 8.249443006373e-02 0.000000000000e+00
          1.558060894310e-01 8.328009130244e-02 0.000000000000e+00
          1.572759581992e-01 8.406575254114e-02 0.000000000000e+00
          1.587458269674e-01 8.485141377984e-02 0.000000000000e+00
          1.602156957356e-01 8.563707501854e-02 0.000000000000e+00
          1.616855645038e-01 8.642273625724e-02 0.000000000000e+00
          1.631554332720e-01 8.720839749595e-02 0.000000000000e+00
          1.646253020403e-01 8.799405873465e-02 0.000000000000e+00
          1.660951708085e-01 8.877971997335e-02 0.000000000000e+00
          1.675650395767e-01 8.956538121205e-02 0.000000000000e+00
          1.690349083449e-01 9.035104245076e-02 0.000000000000e+00
          1.705047771131e-01 9.113670368946e-02 0.000000000000e+00
          1.719746458813e-01 9.192236492816e-02 0.000000000000e+00
          1.734445146496e-01 9.270802616686e-02 0.000000000000e+00
          1.749143834178e-01 9.349368740556e-02 0.000000000000e+00
          1.763842521860e-01 9.427934864427e-02 0.000000000000e+00
          1.778541209542e-01 9.506500988297e-02 0.000000000000e+00
          1.793239897224e-01 9.585067112167e-02 0.000000000000e+00
          1.807938584906e-01 9.663633236037e-02 0.000000000000e+00
          1.822637272589e-01 9.742199359908e-02 0.000000000000e+00
          1.837335960271e-01 9.820765483778e-02 0.000000000000e+00
          1.852034647953e-01 9.899331607648e-02 0.000000000000e+00
          1.866733335635e-01 9.977897731518e-02 0.000000000000e+00
          1.881432023317e-01 1.005646385539e-01 0.000000000000e+00
          1.896130710999e-01 1.013502997926e-01 0.000000000000e+00
          1.910829398682e-01 1.021359610313e-01 0.000000000000e+00
          1.925528086364e-01 1.029216222700e-01 0.000000000000e+00
          1.940226774046e-01 1.037072835087e-01 0.000000000000e+00
          1.954925461728e-01 1.044929447474e-01 0.000000000000e+00
          1.969624149410e-01 1.052786059861e-01 0.000000000000e+00
          1.984322837092e-01 1.060642672248e-01 0.000000000000e+00
          1.455071813069e-01 9.722479204462e-02 0.000000000000e+00
          1.468929639860e-01 9.815074244505e-02 0.000000000000e+00
          1.482787466651e-01 9.907669284547e-02 0.000000000000e+00
          1.496645293442e-01 1.000026432459e-01 0.000000000000e+00
          1.510503120234e-01 1.009285936463e-01 0.000000000000e+00
          1.524360947025e-01 1.018545440467e-01 0.000000000000e+00
          1.538218773816e-01 1.027804944472e-01 0.000000000000e+00
          1.552076600607e-01 1.037064448476e-01 0.000000000000e+00
          1.565934427398e-01 1.046323952480e-01 0.000000000000e+00
          1.579792254189e-01 1.055583456484e-01 0.000000000000e+00
          1.593650080980e-01 1.064842960489e-01 0.000000000000e+00
          1.607507907772e-01 1.074102464493e-01 0.000000000000e+00
          1.621365734563e-01 1.083361968497e-01 0.000000000000e+00
          1.635223561354e-01 1.092621472501e-01 0.000000000000e+00
          1.649081388145e-01 1.101880976506e-01 0.000000000000e+00
          1.662939214936e-01 1.111140480510e-01 0.000000000000e+00
          1.676797041727e-01 1.120399984514e-01 0.000000000000e+00
          1.690654868518e-01 1.129659488518e-01 0.000000000000e+00
          1.704512695309e-01 1.138918992523e-01 0.000000000000e+00
          1.718370522101e-01 1.148178496527e-01 0.000000000000e+00
          1.732228348892e-01 1.157438000531e-01 0.000000000000e+00
          1.746086175683e-01 1.166697504535e-01 0.000000000000e+00
          1.759944002474e-01 1.175957008540e-01 0.000000000000e+00
          1.773801829265e-01 1.185216512544e-01 0.000000000000e+00
          1.787659656056e-01 1.194476016548e-01 0.000000000000e+00
          1.801517482847e-01 1.203735520552e-01 0.000000000000e+00
          1.815375309639e-01 1.212995024557e-01 0.000000000000e+00
          1.829233136430e-01 1.222254528561e-01 0.000000000000e+00
          1.843090963221e-01 1.231514032565e-01 0.000000000000e+00
          1.856948790012e-01 1.240773536569e-01 0.000000000000e+00
          1.870806616803e-01 1.250033040574e-01 0.000000000000e+00
          1.352768282114e-01 1.110188261020e-01 0.000000000000e+00
          1.365651789563e-01 1.120761482554e-01 0.000000000000e+00
          1.378535297011e-01 1.131334704087e-01 0.000000000000e+00
          1.391418804460e-01 1.141907925621e-01 0.000000000000e+00
          1.404302311909e-01 1.152481147154e-01 0.000000000000e+00
          1.417185819357e-01 1.163054368688e-01 0.000000000000e+00
          1.430069326806e-01 1.173627590221e-01 0.000000000000e+00
          1.442952834255e-01 1.184200811755e-01 0.000000000000e+00
          1.455836341704e-01 1.194774033288e-01 0.000000000000e+00
          1.468719849152e-01 1.205347254822e-01 0.000000000000e+00
          1.481603356601e-01 1.215920476355e-01 0.000000000000e+00
          1.494486864050e-01 1.226493697889e-01 0.000000000000e+00
          1.507370371498e-01 1.237066919422e-01 0.000000000000e+00
          1.520253878947e-01 1.247640140956e-01 0.000000000000e+00
          1.533137386396e-01 1.258213362489e-01 0.000000000000e+00
          1.546020893844e-01 1.268786584023e-01 0.000000000000e+00
          1.558904401293e-01 1.279359805556e-01 0.000000000000e+00
          1.571787908742e-01 1.289933027090e-01 0.000000000000e+00
          1.584671416191e-01 1.300506248623e-01 0.000000000000e+00
          1.597554923639e-01 1.311079470157e-01 0.000000000000e+00
          1.610438431088e-01 1.321652691690e-01 0.000000000000e+00
          1.623321938537e-01 1.332225913224e-01 0.000000000000e+00
          1.636205445985e-01 1.342799134758e-01 0.000000000000e+00
          1.649088953434e-01 1.353372356291e-01 0.000000000000e+00
          1.661972460883e-01 1.363945577825e-01 0.000000000000e+00
          1.674855968332e-01 1.374518799358e-01 0.000000000000e+00
          1.687739475780e-01 1.385092020892e-01 0.000000000000e+00
          1.700622983229e-01 1.395665242425e-01 0.000000000000e+00
          1.713506490678e-01 1.406238463959e-01 0.000000000000e+00
          1.726389998126e-01 1.416811685492e-01 0.000000000000e+00
          1.739273505575e-01 1.427384907026e-01 0.000000000000e+00
          1.237436852719e-01 1.237436881434e-01 0.000000000000e+00
          1.249221965602e-01 1.249221994590e-01 0.000000000000e+00
          1.261007078485e-01 1.261007107747e-01 0.000000000000e+00
          1.272792191368e-01 1.272792220903e-01 0.000000000000e+00
          1.284577304251e-01 1.284577334060e-01 0.000000000000e+00
          1.296362417134e-01 1.296362447216e-01 0.000000000000e+00
          1.308147530017e-01 1.308147560373e-01 0.000000000000e+00
          1.319932642900e-01 1.319932673529e-01 0.000000000000e+00
          1.331717755783e-01 1.331717786686e-01 0.000000000000e+00
          1.343502868666e-01 1.343502899842e-01 0.000000000000e+00
          1.355287981549e-01 1.355288012999e-01 0.000000000000e+00
          1.367073094432e-01 1.367073126156e-01 0.000000000000e+00
          1.378858207315e-01 1.378858239312e-01 0.000000000000e+00
          1.390643320199e-01 1.390643352469e-01 0.000000000000e+00
          1.402428433082e-01 1.402428465625e-01 0.000000000000e+00
          1.414213545965e-01 1.414213578782e-01 0.000000000000e+00
          1.425998658848e-01 1.425998691938e-01 0.000000000000e+00
          1.437783771731e-01 1.437783805095e-01 0.000000000000e+00
          1.449568884614e-01 1.449568918251e-01 0.000000000000e+00
          1.461353997497e-01 1.461354031408e-01 0.000000000000e+00
          1.473139110380e-01 1.473139144564e-01 0.000000000000e+00
          1.484924223263e-01 1.484924257721e-01 0.000000000000e+00
          1.496709336146e-01 1.496709370877e-01 0.000000000000e+00
          1.508494449029e-01 1.508494484034e-01 0.000000000000e+00
          1.520279561912e-01 1.520279597190e-01 0.000000000000e+00
          1.532064674795e-01 1.532064710347e-01 0.000000000000e+00
          1.543849787678e-01 1.543849823503e-01 0.000000000000e+00
          1.555634900561e-01 1.555634936660e-01 0.000000000000e+00
          1.567420013444e-01 1.567420049816e-01 0.000000000000e+00
          1.579205126327e-01 1.579205162973e-01 0.000000000000e+00
          1.590990239210e-01 1.590990276129e-01 0.000000000000e+00
          1.110188229629e-01 1.352768307876e-01 0.000000000000e+00
          1.120761450863e-01 1.365651815570e-01 0.000000000000e+00
          1.131334672098e-01 1.378535323264e-01 0.000000000000e+00
          1.141907893333e-01 1.391418830958e-01 0.000000000000e+00
          1.152481114567e-01 1.404302338652e-01 0.000000000000e+00
          1.163054335802e-01 1.417185846346e-01 0.000000000000e+00
          1.173627557036e-01 1.430069354040e-01 0.000000000000e+00
          1.184200778271e-01 1.442952861734e-01 0.000000000000e+00
          1.194773999505e-01 1.455836369428e-01 0.000000000000e+00
          1.205347220740e-01 1.468719877122e-01 0.000000000000e+00
          1.215920441974e-01 1.481603384817e-01 0.000000000000e+00
          1.226493663209e-01 1.494486892511e-01 0.000000000000e+00
          1.237066884444e-01 1.507370400205e-01 0.000000000000e+00
          1.247640105678e-01 1.520253907899e-01 0.000000000000e+00
          1.258213326913e-01 1.533137415593e-01 0.000000000000e+00
          1.268786548147e-01 1.546020923287e-01 0.000000000000e+00
          1.279359769382e-01 1.558904430981e-01 0.000000000000e+00
          1.289932990616e-01 1.571787938675e-01 0.000000000000e+00
          1.300506211851e-01 1.584671446369e-01 0.000000000000e+00
          1.311079433086e-01 1.597554954063e-01 0.000000000000e+00
          1.321652654320e-01 1.610438461757e-01 0.000000000000e+00
          1.332225875555e-01 1.623321969451e-01 0.000000000000e+00
          1.342799096789e-01 1.636205477145e-01 0.000000000000e+00
          1.353372318024e-01 1.649088984839e-01 0.000000000000e+00
          1.363945539258e-01 1.661972492533e-01 0.000000000000e+00
          1.374518760493e-01 1.674856000227e-01 0.000000000000e+00
          1.385091981727e-01 1.687739507921e-01 0.000000000000e+00
          1.395665202962e-01 1.700623015615e-01 0.000000000000e+00
          1.406238424197e-01 1.713506523310e-01 0.000000000000e+00
          1.416811645431e-01 1.726390031004e-01 0.000000000000e+00
          1.427384866666e-01 1.739273538698e-01 0.000000000000e+00
          9.722478866811e-02 1.455071835630e-01 0.000000000000e+00
          9.815073903638e-02 1.468929662636e-01 0.000000000000e+00
          9.907668940465e-02 1.482787489642e-01 0.000000000000e+00
          1.000026397729e-01 1.496645316648e-01 0.000000000000e+00
          1.009285901412e-01 1.510503143654e-01 0.000000000000e+00
          1.018545405095e-01 1.524360970660e-01 0.000000000000e+00
          1.027804908777e-01 1.538218797666e-01 0.000000000000e+00
          1.037064412460e-01 1.552076624672e-01 0.000000000000e+00
          1.046323916143e-01 1.565934451678e-01 0.000000000000e+00
          1.055583419825e-01 1.579792278684e-01 0.000000000000e+00
          1.064842923508e-01 1.593650105690e-01 0.000000000000e+00
          1.074102427191e-01 1.607507932696e-01 0.000000000000e+00
          1.083361930873e-01 1.621365759702e-01 0.000000000000e+00
          1.092621434556e-01 1.635223586708e-01 0.000000000000e+00
          1.101880938239e-01 1.649081413714e-01 0.000000000000e+00
          1.111140441921e-01 1.662939240720e-01 0.000000000000e+00
          1.120399945604e-01 1.676797067726e-01 0.000000000000e+00
          1.129659449287e-01 1.690654894732e-01 0.000000000000e+00
          1.138918952969e-01 1.704512721738e-01 0.000000000000e+00
          1.148178456652e-01 1.718370548744e-01 0.000000000000e+00
          1.157437960335e-01 1.732228375750e-01 0.000000000000e+00
          1.166697464017e-01 1.746086202756e-01 0.000000000000e+00
          1.175956967700e-01 1.759944029762e-01 0.000000000000e+00
          1.185216471383e-01 1.773801856768e-01 0.000000000000e+00
          1.194475975065e-01 1.787659683774e-01 0.000000000000e+00
          1.203735478748e-01 1.801517510780e-01 0.000000000000e+00
          1.212994982431e-01 1.815375337786e-01 0.000000000000e+00
          1.222254486113e-01 1.829233164792e-01 0.000000000000e+00
          1.231513989796e-01 1.843090991798e-01 0.000000000000e+00
          1.240773493479e-01 1.856948818804e-01 0.000000000000e+00
          1.250032997161e-01 1.870806645810e-01 0.000000000000e+00
          8.249442648235e-02 1.543362225770e-01 0.000000000000e+00
          8.328008768694e-02 1.558060913635e-01 0.000000000000e+00
          8.406574889153e-02 1.572759601499e-01 0.000000000000e+00
          8.485141009613e-02 1.587458289364e-01 0.000000000000e+00
          8.563707130072e-02 1.602156977228e-01 0.000000000000e+00
          8.642273250531e-02 1.616855665093e-01 0.000000000000e+00
          8.720839370991e-02 1.631554352957e-01 0.000000000000e+00
          8.799405491450e-02 1.646253040822e-01 0.000000000000e+00
          8.877971611910e-02 1.660951728686e-01 0.000000000000e+00
          8.956537732369e-02 1.675650416551e-01 0.000000000000e+00
          9.035103852828e-02 1.690349104415e-01 0.000000000000e+00
          9.113669973288e-02 1.705047792280e-01 0.000000000000e+00
          9.192236093747e-02 1.719746480144e-01 0.000000000000e+00
          9.270802214206e-02 1.734445168009e-01 0.000000000000e+00
          9.349368334666e-02 1.749143855873e-01 0.000000000000e+00
          9.427934455125e-02 1.763842543738e-01 0.000000000000e+00
          9.506500575585e-02 1.778541231602e-01 0.000000000000e+00
          9.585066696044e-02 1.793239919467e-01 0.000000000000e+00
          9.663632816503e-02 1.807938607331e-01 0.000000000000e+00
          9.742198936963e-02 1.822637295195e-01 0.000000000000e+00
          9.820765057422e-02 1.837335983060e-01 0.000000000000e+00
          9.899331177881e-02 1.852034670924e-01 0.000000000000e+00
          9.977897298341e-02 1.866733358789e-01 0.000000000000e+00
          1.005646341880e-01 1.881432046653e-01 0.000000000000e+00
          1.013502953926e-01 1.896130734518e-01 0.000000000000e+00
          1.021359565972e-01 1.910829422382e-01 0.000000000000e+00
          1.029216178018e-01 1.925528110247e-01 0.000000000000e+00
          1.037072790064e-01 1.940226798111e-01 0.000000000000e+00
          1.044929402110e-01 1.954925485976e-01 0.000000000000e+00
          1.052786014156e-01 1.969624173840e-01 0.000000000000e+00
          1.060642626202e-01 1.984322861705e-01 0.000000000000e+00
          6.696959785006e-02 1.616789193550e-01 0.000000000000e+00
          6.760740354387e-02 1.632187185870e-01 0.000000000000e+00
          6.824520923768e-02 1.647585178189e-01 0.000000000000e+00
          6.888301493149e-02 1.662983170509e-01 0.000000000000e+00
          6.952082062530e-02 1.678381162828e-01 0.000000000000e+00
          7.015862631911e-02 1.693779155148e-01 0.000000000000e+00
          7.079643201292e-02 1.709177147467e-01 0.000000000000e+00
          7.143423770673e-02 1.724575139787e-01 0.000000000000e+00
          7.207204340054e-02 1.739973132106e-01 0.000000000000e+00
          7.270984909435e-02 1.755371124426e-01 0.000000000000e+00
          7.334765478816e-02 1.770769116745e-01 0.000000000000e+00
          7.398546048197e-02 1.786167109065e-01 0.000000000000e+00
          7.462326617578e-02 1.801565101384e-01 0.000000000000e+00
          7.526107186959e-02 1.816963093704e-01 0.000000000000e+00
          7.589887756340e-02 1.832361086023e-01 0.000000000000e+00
          7.653668325721e-02 1.847759078343e-01 0.000000000000e+00
          7.717448895102e-02 1.863157070662e-01 0.000000000000e+00
          7.781229464483e-02 1.878555062982e-01 0.000000000000e+00
          7.845010033864e-02 1.893953055301e-01 0.000000000000e+00
          7.908790603245e-02 1.909351047621e-01 0.000000000000e+00
          7.972571172626e-02 1.924749039941e-01 0.000000000000e+00
          8.036351742007e-02 1.940147032260e-01 0.000000000000e+00
          8.100132311388e-02 1.955545024580e-01 0.000000000000e+00
          8.163912880769e-02 1.970943016899e-01 0.000000000000e+00
          8.227693450150e-02 1.986341009219e-01 0.000000000000e+00
          8.291474019531e-02 2.001739001538e-01 0.000000000000e+00
          8.355254588912e-02 2.017136993858e-01 0.000000000000e+00
          8.419035158293e-02 2.032534986177e-01 0.000000000000e+00
          8.482815727674e-02 2.047932978497e-01 0.000000000000e+00
          8.546596297055e-02 2.063330970816e-01 0.000000000000e+00
          8.610376866436e-02 2.078728963136e-01 0.000000000000e+00
          5.079981536213e-02 1.674645597109e-01 0.000000000000e+00
          5.128362312748e-02 1.690594602796e-01 0.000000000000e+00
          5.176743089284e-02 1.706543608483e-01 0.000000000000e+00
          5.225123865819e-02 1.722492614169e-01 0.000000000000e+00
          5.273504642354e-02 1.738441619856e-01 0.000000000000e+00
          5.321885418890e-02 1.754390625543e-01 0.000000000000e+00
          5.370266195425e-02 1.770339631230e-01 0.000000000000e+00
          5.418646971960e-02 1.786288636917e-01 0.000000000000e+00
          5.467027748496e-02 1.802237642603e-01 0.000000000000e+00
          5.515408525031e-02 1.818186648290e-01 0.000000000000e+00
          5.563789301567e-02 1.834135653977e-01 0.000000000000e+00
          5.612170078102e-02 1.850084659664e-01 0.000000000000e+00
          5.660550854637e-02 1.866033665350e-01 0.000000000000e+00
          5.708931631173e-02 1.881982671037e-01 0.000000000000e+00
          5.757312407708e-02 1.897931676724e-01 0.000000000000e+00
          5.805693184243e-02 1.913880682411e-01 0.000000000000e+00
          5.854073960779e-02 1.929829688097e-01 0.000000000000e+00
          5.902454737314e-02 1.945778693784e-01 0.000000000000e+00
          5.950835513849e-02 1.961727699471e-01 0.000000000000e+00
          5.999216290385e-02 1.977676705158e-01 0.000000000000e+00
          6.047597066920e-02 1.993625710844e-01 0.000000000000e+00
          6.095977843456e-02 2.009574716531e-01 0.000000000000e+00
          6.144358619991e-02 2.025523722218e-01 0.000000000000e+00
          6.192739396526e-02 2.041472727905e-01 0.000000000000e+00
          6.241120173062e-02 2.057421733591e-01 0.000000000000e+00
          6.289500949597e-02 2.073370739278e-01 0.000000000000e+00
          6.337881726132e-02 2.089319744965e-01 0.000000000000e+00
          6.386262502668e-02 2.105268750652e-01 0.000000000000e+00
          6.434643279203e-02 2.121217756338e-01 0.000000000000e+00
          6.483024055738e-02 2.137166762025e-01 0.000000000000e+00
          6.531404832274e-02 2.153115767712e-01 0.000000000000e+00
          3.414080286782e-02 1.716374247638e-01 0.000000000000e+00
          3.446595337132e-02 1.732720669044e-01 0.000000000000e+00
          3.479110387482e-02 1.749067090450e-01 0.000000000000e+00
          3.511625437833e-02 1.765413511856e-01 0.000000000000e+00
          3.544140488183e-02 1.781759933262e-01 0.000000000000e+00
          3.576655538533e-02 1.798106354668e-01 0.000000000000e+00
          3.609170588883e-02 1.814452776074e-01 0.000000000000e+00
          3.641685639234e-02 1.830799197480e-01 0.000000000000e+00
          3.674200689584e-02 1.847145618886e-01 0.000000000000e+00
          3.706715739934e-02 1.863492040292e-01 0.000000000000e+00
          3.739230790285e-02 1.879838461699e-01 0.000000000000e+00
          3.771745840635e-02 1.896184883105e-01 0.000000000000e+00
          3.804260890985e-02 1.912531304511e-01 0.000000000000e+00
          3.836775941336e-02 1.928877725917e-01 0.000000000000e+00
          3.869290991686e-02 1.945224147323e-01 0.000000000000e+00
          3.901806042036e-02 1.961570568729e-01 0.000000000000e+00
          3.934321092386e-02 1.977916990135e-01 0.000000000000e+00
          3.966836142737e-02 1.994263411541e-01 0.000000000000e+00
          3.999351193087e-02 2.010609832947e-01 0.000000000000e+00
          4.031866243437e-02 2.026956254353e-01 0.000000000000e+00
          4.064381293788e-02 2.043302675759e-01 0.000000000000e+00
          4.096896344138e-02 2.059649097165e-01 0.000000000000e+00
          4.129411394488e-02 2.075995518571e-01 0.000000000000e+00
          4.161926444839e-02 2.092341939977e-01 0.000000000000e+00
          4.194441495189e-02 2.108688361384e-01 0.000000000000e+00
          4.226956545539e-02 2.125034782790e-01 0.000000000000e+00
          4.259471595889e-02 2.141381204196e-01 0.000000000000e+00
          4.291986646240e-02 2.157727625602e-01 0.000000000000e+00
          4.324501696590e-02 2.174074047008e-01 0.000000000000e+00
          4.357016746940e-02 2.190420468414e-01 0.000000000000e+00
          4.389531797291e-02 2.206766889820e-01 0.000000000000e+00
          1.715299576892e-02 1.741573275408e-01 0.000000000000e+00
          1.731635763338e-02 1.758159687555e-01 0.000000000000e+00
          1.747971949785e-02 1.774746099701e-01 0.000000000000e+00
          1.764308136232e-02 1.791332511848e-01 0.000000000000e+00
          1.780644322678e-02 1.807918923995e-01 0.000000000000e+00
          1.796980509125e-02 1.824505336142e-01 0.000000000000e+00
          1.813316695571e-02 1.841091748288e-01 0.000000000000e+00
          1.829652882018e-02 1.857678160435e-01 0.000000000000e+00
          1.845989068465e-02 1.874264572582e-01 0.000000000000e+00
          1.862325254911e-02 1.890850984729e-01 0.000000000000e+00
          1.878661441358e-02 1.907437396875e-01 0.000000000000e+00
          1.894997627804e-02 1.924023809022e-01 0.000000000000e+00
          1.911333814251e-02 1.940610221169e-01 0.000000000000e+00
          1.927670000697e-02 1.957196633316e-01 0.000000000000e+00
          1.944006187144e-02 1.973783045462e-01 0.000000000000e+00
          1.960342373591e-02 1.990369457609e-01 0.000000000000e+00
          1.976678560037e-02 2.006955869756e-01 0.000000000000e+00
          1.993014746484e-02 2.023542281903e-01 0.000000000000e+00
          2.009350932930e-02 2.040128694049e-01 0.000000000000e+00
          2.025687119377e-02 2.056715106196e-01 0.000000000000e+00
          2.042023305824e-02 2.073301518343e-01 0.000000000000e+00
          2.058359492270e-02 2.089887930490e-01 0.000000000000e+00
          2.074695678717e-02 2.106474342636e-01 0.000000000000e+00
          2.091031865163e-02 2.123060754783e-01 0.000000000000e+00
          2.107368051610e-02 2.139647166930e-01 0.000000000000e+00
          2.123704238057e-02 2.156233579076e-01 0.000000000000e+00
          2.140040424503e-02 2.172819991223e-01 0.000000000000e+00
          2.156376610950e-02 2.189406403370e-01 0.000000000000e+00
          2.172712797396e-02 2.205992815517e-01 0.000000000000e+00
          2.189048983843e-02 2.222579227663e-01 0.000000000000e+00
          2.205385170289e-02 2.239165639810e-01 0.000000000000e+00
          -4.060893083300e-09 1.750000000000e-01 0.000000000000e+00
          -4.099568255522e-09 1.766666666667e-01 0.000000000000e+00
          -4.138243427744e-09 1.783333333333e-01 0.000000000000e+00
          -4.176918599966e-09 1.800000000000e-01 0.000000000000e+00
          -4.215593772188e-09 1.816666666667e-01 0.000000000000e+00
          -4.254268944410e-09 1.833333333333e-01 0.000000000000e+00
          -4.292944116632e-09 1.850000000000e-01 0.000000000000e+00
          -4.331619288854e-09 1.866666666667e-01 0.000000000000e+00
          -4.370294461076e-09 1.883333333333e-01 0.000000000000e+00
          -4.408969633297e-09 1.900000000000e-01 0.000000000000e+00
          -4.447644805519e-09 1.916666666667e-01 0.000000000000e+00
          -4.486319977741e-09 1.933333333333e-01 0.000000000000e+00
          -4.524995149963e-09 1.950000000000e-01 0.000000000000e+00
          -4.563670322185e-09 1.966666666667e-01 0.000000000000e+00
          -4.602345494407e-09 1.983333333333e-01 0.000000000000e+00
          -4.641020666629e-09 2.000000000000e-01 0.000000000000e+00
          -4.679695838851e-09 2.016666666667e-01 0.000000000000e+00
          -4.718371011073e-09 2.033333333333e-01 0.000000000000e+00
          -4.757046183295e-09 2.050000000000e-01 0.000000000000e+00
          -4.795721355517e-09 2.066666666667e-01 0.000000000000e+00
          -4.834396527738e-09 2.083333333333e-01 0.000000000000e+00
          -4.873071699960e-09 2.100000000000e-01 0.000000000000e+00
          -4.911746872182e-09 2.116666666667e-01 0.000000000000e+00
          -4.950422044404e-09 2.133333333333e-01 0.000000000000e+00
          -4.989097216626e-09 2.150000000000e-01 0.000000000000e+00
          -5.027772388848e-09 2.166666666667e-01 0.000000000000e+00
          -5.066447561070e-09 2.183333333333e-01 0.000000000000e+00
          -5.105122733292e-09 2.200000000000e-01 0.000000000000e+00
          -5.143797905514e-09 2.216666666667e-01 0.000000000000e+00
          -5.182473077736e-09 2.233333333333e-01 0.000000000000e+00
          -5.221148249957e-09 2.250000000000e-01 0.000000000000e+00
        </DataArray>
      </Points>
      <Cells>
        <DataArray type="Int64" Name="connectivity" format="ascii">
          31 0 1 32 
          32 1 2 33 
          33 2 3 34 
          34 3 4 35 
          35 4 5 36 
          36 5 6 37 
          37 6 7 38 
          38 7 8 39 
          39 8 9 40 
          40 9 10 41 
          41 10 11 42 
          42 11 12 43 
          43 12 13 44 
          44 13 14 45 
          45 14 15 46 
          46 15 16 47 
          47 16 17 48 
          48 17 18 49 
          49 18 19 50 
          50 19 20 51 
          51 20 21 52 
          52 21 22 53 
          53 22 23 54 
          54 23 24 55 
          55 24 25 56 
          56 25 26 57 
          57 26 27 58 
          58 27 28 59 
          59 28 29 60 
          60 29 30 61 
          62 31 32 63 
          63 32 33 64 
          64 33 34 65 
          65 34 35 66 
          66 35 36 67 
          67 36 37 68 
          68 37 38 69 
          69 38 39 70 
          70 39 40 71 
          71 40 41 72 
          72 41 42 73 
          73 42 43 74 
          74 43 44 75 
          75 44 45 76 
          76 45 46 77 
          77 46 47 78 
          78 47 48 79 
          79 48 49 80 
          80 49 50 81 
          81 50 51 82 
          82 51 52 83 
          83 52 53 84 
          84 53 54 85 
          85 54 55 86 
          86 55 56 87 
          87 56 57 88 
          88 57 58 89 
          89 58 59 90 
          90 59 60 91 
          91 60 61 92 
          93 62 63 94 
          94 63 64 95 
          95 64 65 96 
          96 65 66 97 
          97 66 67 98 
          98 67 68 99 
          99 68 69 100 
          100 69 70 101 
          101 70 71 102 
          102 71 72 103 
          103 72 73 104 
          104 73 74 105 
          105 74 75 106 
          106 75 76 107 
          107 76 77 108 
          108 77 78 109 
          109 78 79 110 
          110 79 80 111 
          111 80 81 112 
          112 81 82 113 
          113 82 83 114 
          114 83 84 115 
          115 84 85 116 
          116 85 86 117 
          117 86 87 118 
          118 87 88 119 
          119 88 89 120 
          120 89 90 121 
          121 90 91 122 
          122 91 92 123 
          124 93 94 125 
          125 94 95 126 
          126 95 96 127 
          127 96 97 128 
          128 97 98 129 
          129 98 99 130 
          130 99 100 131 
          131 100 101 132 
          132 101 102 133 
          133 102 103 134 
          134 103 104 135 
          135 104 105 136 
          136 105 106 137 
          137 106 107 138 
          138 107 108 139 
          139 108 109 140 
          140 109 110 141 
          141 110 111 142 
          142 111 112 143 
          143 112 113 144 
          144 113 114 145 
          145 114 115 146 
          146 115 116 147 
          147 116 117 148 
          148 117 118 149 
          149 118 119 150 
          150 119 120 151 
          151 120 121 152 
          152 121 122 153 
          153 122 123 154 
          155 124 125 156 
          156 125 126 157 
          157 126 127 158 
          158 127 128 159 
          159 128 129 160 
          160 129 130 161 
          161 130 131 162 
          162 131 132 163 
          163 132 133 164 
          164 133 134 165 
          165 134 135 166 
          166 135 136 167 
          167 136 137 168 
          168 137 138 169 
          169 138 139 170 
          170 139 140 171 
          171 140 141 172 
          172 141 142 173 
          173 142 143 174 
          174 143 144 175 
          175 144 145 176 
          176 145 146 177 
          177 146 147 178 
          178 147 148 179 
          179 148 149 180 
          180 149 150 181 
          181 150 151 182 
          182 151 152 183 
          183 152 153 184 
          184 153 154 185 
          186 155 156 187 
          187 156 157 188 
          188 157 158 189 
          189 158 159 190 
          190 159 160 191 
          191 160 161 192 
          192 161 162 193 
          193 162 163 194 
          194 163 164 195 
          195 164 165 196 
          196 165 166 197 
          197 166 167 198 
          198 167 168 199 
          199 168 169 200 
          200 169 170 201 
          201 170 171 202 
          202 171 172 203 
          203 172 173 204 
          204 173 174 205 
          205 174 175 206 
          206 175 176 207 
          207 176 177 208 
          208 177 178 209 
          209 178 179 210 
          210 179 180 211 
          211 180 181 212 
          212 181 182 213 
          213 182 183 214 
          214 183 184 215 
          215 184 185 216 
          217 186 187 218 
          218 187 188 219 
          219 188 189 220 
          220 189 190 221 
          221 190 191 222 
          222 191 192 223 
          223 192 193 224 
          224 193 194 225 
          225 194 195 226 
          226 195 196 227 
          227 196 197 228 
          228 197 198 229 
          229 198 199 230 
          230 199 200 231 
          231 200 201 232 
          232 201 202 233 
          233 202 203 234 
          234 203 204 235 
          235 204 205 236 
          236 205 206 237 
          237 206 207 238 
          238 207 208 239 
          239 208 209 240 
          240 209 210 241 
          241 210 211 242 
          242 211 212 243 
          243 212 213 244 
          244 213 214 245 
          245 214 215 246 
          246 215 216 247 
          248 217 218 249 
          249 218 219 250 
          250 219 220 251 
          251 220 221 252 
          252 221 222 253 
          253 222 223 254 
          254 223 224 255 
          255 224 225 256 
          256 225 226 257 
          257 226 227 258 
          258 227 228 259 
          259 228 229 260 
          260 229 230 261 
          261 230 231 262 
          262 231 232 263 
          263 232 233 264 
          264 233 234 265 
          265 234 235 266 
          266 235 236 267 
          267 236 237 268 
          268 237 238 269 
          269 238 239 270 
          270 239 240 271 
          271 240 241 272 
          272 241 242 273 
          273 242 243 274 
          274 243 244 275 
          275 244 245 276 
          276 245 246 277 
          277 246 247 278 
          279 248 249 280 
          280 249 250 281 
          281 250 251 282 
          282 251 252 283 
          283 252 253 284 
          284 253 254 285 
          285 254 255 286 
          286 255 256 287 
          287 256 257 288 
          288 257 258 289 
          289 258 259 290 
          290 259 260 291 
          291 260 261 292 
          292 261 262 293 
          293 262 263 294 
          294 263 264 295 
          295 264 265 296 
          296 265 266 297 
          297 266 267 298 
          298 267 268 299 
          299 268 269 300 
          300 269 270 301 
          301 270 271 302 
          302 271 272 303 
          303 272 273 304 
          304 273 274 305 
          305 274 275 306 
          306 275 276 307 
          307 276 277 308 
          308 277 278 309 
          310 279 280 311 
          311 280 281 312 
          312 281 282 313 
          313 282 283 314 
          314 283 284 315 
          315 284 285 316 
          316 285 286 317 
          317 286 287 318 
          318 287 288 319 
          319 288 289 320 
          320 289 290 321 
          321 290 291 322 
          322 291 292 323 
          323 292 293 324 
          324 293 294 325 
          325 294 295 326 
          326 295 296 327 
          327 296 297 328 
          328 297 298 329 
          329 298 299 330 
          330 299 300 331 
          331 300 301 332 
          332 301 302 333 
          333 302 303 334 
          334 303 304 335 
          335 304 305 336 
          336 305 306 337 
          337 306 307 338 
          338 307 308 339 
          339 308 309 340 
          341 310 311 342 
          342 311 312 343 
          343 312 313 344 
          344 313 314 345 
          345 314 315 346 
          346 315 316 347 
          347 316 317 348 
          348 317 318 349 
          349 318 319 350 
          350 319 320 351 
          351 320 321 352 
          352 321 322 353 
          353 322 323 354 
          354 323 324 355 
          355 324 325 356 
          356 325 326 357 
          357 326 327 358 
          358 327 328 359 
          359 328 329 360 
          360 329 330 361 
          361 330 331 362 
          362 331 332 363 
          363 332 333 364 
          364 333 334 365 
          365 334 335 366 
          366 335 336 367 
          367 336 337 368 
          368 337 338 369 
          369 338 339 370 
          370 339 340 371 
          372 341 342 373 
          373 342 343 374 
          374 343 344 375 
          375 344 345 376 
          376 345 346 377 
          377 346 347 378 
          378 347 348 379 
          379 348 349 380 
          380 349 350 381 
          381 350 351 382 
          382 351 352 383 
          383 352 353 384 
          384 353 354 385 
          385 354 355 386 
          386 355 356 387 
          387 356 357 388 
          388 357 358 389 
          389 358 359 390 
          390 359 360 391 
          391 360 361 392 
          392 361 362 393 
          393 362 363 394 
          394 363 364 395 
          395 364 365 396 
          396 365 366 397 
          397 366 367 398 
          398 367 368 399 
          399 368 369 400 
          400 369 370 401 
          401 370 371 402 
          403 372 373 404 
          404 373 374 405 
          405 374 375 406 
          406 375 376 407 
          407 376 377 408 
          408 377 378 409 
          409 378 379 410 
          410 379 380 411 
          411 380 381 412 
          412 381 382 413 
          413 382 383 414 
          414 383 384 415 
          415 384 385 416 
          416 385 386 417 
          417 386 387 418 
          418 387 388 419 
          419 388 389 420 
          420 389 390 421 
          421 390 391 422 
          422 391 392 423 
          423 392 393 424 
          424 393 394 425 
          425 394 395 426 
          426 395 396 427 
          427 396 397 428 
          428 397 398 429 
          429 398 399 430 
          430 399 400 431 
          431 400 401 432 
          432 401 402 433 
          434 403 404 435 
          435 404 405 436 
          436 405 406 437 
          437 406 407 438 
          438 407 408 439 
          439 408 409 440 
          440 409 410 441 
          441 410 411 442 
          442 411 412 443 
          443 412 413 444 
          444 413 414 445 
          445 414 415 446 
          446 415 416 447 
          447 416 417 448 
          448 417 418 449 
          449 418 419 450 
          450 419 420 451 
          451 420 421 452 
          452 421 422 453 
          453 422 423 454 
          454 423 424 455 
          455 424 425 456 
          456 425 426 457 
          457 426 427 458 
          458 427 428 459 
          459 428 429 460 
          460 429 430 461 
          461 430 431 462 
          462 431 432 463 
          463 432 433 464 
          465 434 435 466 
          466 435 436 467 
          467 436 437 468 
          468 437 438 469 
          469 438 439 470 
          470 439 440 471 
          471 440 441 472 
          472 441 442 473 
          473 442 443 474 
          474 443 444 475 
          475 444 445 476 
          476 445 446 477 
          477 446 447 478 
          478 447 448 479 
          479 448 449 480 
          480 449 450 481 
          481 450 451 482 
          482 451 452 483 
          483 452 453 484 
          484 453 454 485 
          485 454 455 486 
          486 455 456 487 
          487 456 457 488 
          488 457 458 489 
          489 458 459 490 
          490 459 460 491 
          491 460 461 492 
          492 461 462 493 
          493 462 463 494 
          494 463 464 495 
          496 465 466 497 
          497 466 467 498 
          498 467 468 499 
          499 468 469 500 
          500 469 470 501 
          501 470 471 502 
          502 471 472 503 
          503 472 473 504 
          504 473 474 505 
          505 474 475 506 
          506 475 476 507 
          507 476 477 508 
          508 477 478 509 
          509 478 479 510 
          510 479 480 511 
          511 480 481 512 
          512 481 482 513 
          513 482 483 514 
          514 483 484 515 
          515 484 485 516 
          516 485 486 517 
          517 486 487 518 
          518 487 488 519 
          519 488 489 520 
          520 489 490 521 
          521 490 491 522 
          522 491 492 523 
          523 492 493 524 
          524 493 494 525 
          525 494 495 526 
        </DataArray>
        <DataArray type="Int64" Name="offsets" format="ascii">
          4 8 12 16 20 24 28 32 36 40 44 48 52 56 60 64 68 72 76 80 84 88 92 96 100 104 108 112 116 120 124 128 132 136 140 144 148 152 156 160 164 168 172 176 180 184 188 192 196 200 204 208 212 216 220 224 228 232 236 240 244 248 252 256 260 264 268 272 276 280 284 288 292 296 300 304 308 312 316 320 324 328 332 336 340 344 348 352 356 360 364 368 372 376 380 384 388 392 396 400 404 408 412 416 420 424 428 432 436 440 444 448 452 456 460 464 468 472 476 480 484 488 492 496 500 504 508 512 516 520 524 528 532 536 540 544 548 552 556 560 564 568 572 576 580 584 588 592 596 600 604 608 612 616 620 624 628 632 636 640 644 648 652 656 660 664 668 672 676 680 684 688 692 696 700 704 708 712 716 720 724 728 732 736 740 744 748 752 756 760 764 768 772 776 780 784 788 792 796 800 804 808 812 816 820 824 828 832 836 840 844 848 852 856 860 864 868 872 876 880 884 888 892 896 900 904 908 912 916 920 924 928 932 936 940 944 948 952 956 960 964 968 972 976 980 984 988 992 996 1000 1004 1008 1012 1016 1020 1024 1028 1032 1036 1040 1044 1048 1052 1056 1060 1064 1068 1072 1076 1080 1084 1088 1092 1096 1100 1104 1108 1112 1116 1120 1124 1128 1132 1136 1140 1144 1148 1152 1156 1160 1164 1168 1172 1176 1180 1184 1188 1192 1196 1200 1204 1208 1212 1216 1220 1224 1228 1232 1236 1240 1244 1248 1252 1256 1260 1264 1268 1272 1276 1280 1284 1288 1292 1296 1300 1304 1308 1312 1316 1320 1324 1328 1332 1336 1340 1344 1348 1352 1356 1360 1364 1368 1372 1376 1380 1384 1388 1392 1396 1400 1404 1408 1412 1416 1420 1424 1428 1432 1436 1440 1444 1448 1452 1456 1460 1464 1468 1472 1476 1480 1484 1488 1492 1496 1500 1504 1508 1512 1516 1520 1524 1528 1532 1536 1540 1544 1548 1552 1556 1560 1564 1568 1572 1576 1580 1584 1588 1592 1596 1600 1604 1608 1612 1616 1620 1624 1628 1632 1636 1640 1644 1648 1652 1656 1660 1664 1668 1672 1676 1680 1684 1688 1692 1696 1700 1704 1708 1712 1716 1720 1724 1728 1732 1736 1740 1744 1748 1752 1756 1760 1764 1768 1772 1776 1780 1784 1788 1792 1796 1800 1804 1808 1812 1816 1820 1824 1828 1832 1836 1840 1844 1848 1852 1856 1860 1864 1868 1872 1876 1880 1884 1888 1892 1896 1900 1904 1908 1912 1916 1920 
        </DataArray>
        <DataArray type="UInt8" Name="types" format="ascii">
          9 9 9 9 9 9 9 9 9 9 9 9 9 9 9 9 9 9 9 9 9 9 9 9 9 9 9 9 9 9 9 9 9 9 9 9 9 9 9 9 9 9 9 9 9 9 9 9 9 9 9 9 9 9 9 9 9 9 9 9 9 9 9 9 9 9 9 9 9 9 9 9 9 9 9 9 9 9 9 9 9 9 9 9 9 9 9 9 9 9 9 9 9 9 9 9 9 9 9 9 9 9 9 9 9 9 9 9 9 9 9 9 9 9 9 9 9 9 9 9 9 9 9 9 9 9 9 9 9 9 9 9 9 9 9 9 9 9 9 9 9 9 9 9 9 9 9 9 9 9 9 9 9 9 9 9 9 9 9 9 9 9 9 9 9 9 9 9 9 9 9 9 9 9 9 9 9 9 9 9 9 9 9 9 9 9 9 9 9 9 9 9 9 9 9 9 9 9 9 9 9 9 9 9 9 9 9 9 9 9 9 9 9 9 9 9 9 9 9 9 9 9 9 9 9 9 9 9 9 9 9 9 9 9 9 9 9 9 9 9 9 9 9 9 9 9 9 9 9 9 9 9 9 9 9 9 9 9 9 9 9 9 9 9 9 9 9 9 9 9 9 9 9 9 9 9 9 9 9 9 9 9 9 9 9 9 9 9 9 9 9 9 9 9 9 9 9 9 9 9 9 9 9 9 9 9 9 9 9 9 9 9 9 9 9 9 9 9 9 9 9 9 9 9 9 9 9 9 9 9 9 9 9 9 9 9 9 9 9 9 9 9 9 9 9 9 9 9 9 9 9 9 9 9 9 9 9 9 9 9 9 9 9 9 9 9 9 9 9 9 9 9 9 9 9 9 9 9 9 9 9 9 9 9 9 9 9 9 9 9 9 9 9 9 9 9 9 9 9 9 9 9 9 9 9 9 9 9 9 9 9 9 9 9 9 9 9 9 9 9 9 9 9 9 9 9 9 9 9 9 9 9 9 9 9 9 9 9 9 9 9 9 9 9 9 9 9 9 9 9 9 9 9 9 9 9 9 9 9 9 9 9 9 9 9 9 9 9 9 9 9 9 9 9 9 9 9 9 9 9 
        </DataArray>
      </Cells>
      <PointData Scalars="DISPLACEMENT_X1">
        <DataArray type="Float64" Name="STRESS_1" format="ascii">
          -1.039995439059e+03 -6.415501851460e+03 -1.156808454664e+04 -1.651890389450e+04 -2.128131198453e+04 -2.586643740152e+04 -3.028394389916e+04 -3.454242671110e+04 -3.864966024680e+04 -4.261276477922e+04 -4.643832242641e+04 -5.013246121860e+04 -5.370091579492e+04 -5.714907392212e+04 -6.048201080745e+04 -6.370451724431e+04 -6.682112008209e+04 -6.983610014494e+04 -7.275350495441e+04 -7.557715898820e+04 -7.831067082357e+04 -8.095743688114e+04 -8.352064233270e+04 -8.600325781171e+04 -8.840803274665e+04 -9.073748359178e+04 -9.299388049597e+04 -9.517923807368e+04 -9.729534014373e+04 -9.934389427987e+04 -1.013278516331e+05 -1.040335681539e+03 -6.415648252910e+03 -1.156816083866e+04 -1.651894765404e+04 -2.128133831986e+04 -2.586645393649e+04 -3.028395448613e+04 -3.454243355611e+04 -3.864966485494e+04 -4.261276786741e+04 -4.643832462962e+04 -5.013246270947e+04 -5.370091684520e+04 -5.714907460534e+04 -6.048201127338e+04 -6.370451734103e+04 -6.682111983551e+04 -6.983609956887e+04 -7.275350386227e+04 -7.557715735997e+04 -7.831066837095e+04 -8.095743358088e+04 -8.352063791742e+04 -8.600325221046e+04 -8.840802584811e+04 -9.073747561455e+04 -9.299387202581e+04 -9.517923041853e+04 -9.729533578220e+04 -9.934389556376e+04 -1.013278558048e+05 -1.040734972256e+03 -6.415797974609e+03 -1.156823398180e+04 -1.651898910946e+04 -2.128136284932e+04 -2.586646807156e+04 -3.028396192807e+04 -3.454243657435e+04 -3.864966507895e+04 -4.261276636862e+04 -4.643832190954e+04 -5.013245928247e+04 -5.370091294329e+04 -5.714907041227e+04 -6.048200665756e+04 -6.370451239378e+04 -6.682111445972e+04 -6.983609355350e+04 -7.275349696854e+04 -7.557714924347e+04 -7.831065884882e+04 -8.095742199574e+04 -8.352062366585e+04 -8.600323445511e+04 -8.840800356371e+04 -9.073744731462e+04 -9.299383574761e+04 -9.517918317189e+04 -9.729527231131e+04 -9.934380479337e+04 -1.013277143803e+05 -1.041436807682e+03 -6.416061074717e+03 -1.156836231371e+04 -1.651906198884e+04 -2.128140582383e+04 -2.586649273384e+04 -3.028397465474e+04 -3.454244165683e+04 -3.864966505897e+04 -4.261276312951e+04 -4.643831655937e+04 -5.013245258233e+04 -5.370090535548e+04 -5.714906207147e+04 -6.048199776154e+04 -6.370450272135e+04 -6.682110401350e+04 -6.983608191420e+04 -7.275348384551e+04 -7.557713407823e+04 -7.831064104644e+04 -8.095740066488e+04 -8.352059770347e+04 -8.600320247517e+04 -8.840796361541e+04 -9.073739697819e+04 -9.299377146462e+04 -9.517909981771e+04 -9.729516055267e+04 -9.934364510400e+04 -1.013274657259e+05 -1.042502502319e+03 -6.416460128776e+03 -1.156855671256e+04 -1.651917186619e+04 -2.128147039392e+04 -2.586652912863e+04 -3.028399293373e+04 -3.454244801146e+04 -3.864966362782e+04 -4.261275648056e+04 -4.643830664676e+04 -5.013244046708e+04 -5.370089171718e+04 -5.714904725799e+04 -6.048198196665e+04 -6.370448578005e+04 -6.682108573695e+04 -6.983606185929e+04 -7.275346162026e+04 -7.557710882533e+04 -7.831061176688e+04 -8.095736612200e+04 -8.352055636004e+04 -8.600315210423e+04 -8.840790134942e+04 -9.073731913690e+04 -9.299367279118e+04 -9.517897234929e+04 -9.729499039440e+04 -9.934340233664e+04 -1.013270882193e+05 -1.044033944736e+03 -6.417032495989e+03 -1.156883435981e+04 -1.651932791562e+04 -2.128156084039e+04 -2.586657897231e+04 -3.028401636221e+04 -3.454245403254e+04 -3.864965805477e+04 -4.261274327725e+04 -4.643828845091e+04 -5.013241900365e+04 -5.370086789660e+04 -5.714902165612e+04 -6.048195473228e+04 -6.370445714105e+04 -6.682105501698e+04 -6.983602881433e+04 -7.275342534900e+04 -7.557706845686e+04 -7.831056581775e+04 -8.095731292687e+04 -8.352049352284e+04 -8.600307660026e+04 -8.840780926736e+04 -9.073720503643e+04 -9.299352918262e+04 -9.517878782776e+04 -9.729474510361e+04 -9.934305305310e+04 -1.013265458794e+05 -1.046196286828e+03 -6.417838047997e+03 -1.156922271826e+04 -1.651954383339e+04 -2.128168355665e+04 -2.586664410023e+04 -3.028404364101e+04 -3.454245615500e+04 -3.864964352264e+04 -4.261271783358e+04 -4.643825573814e+04 -5.013238127594e+04 -5.370082691506e+04 -5.714897819473e+04 -6.048190916955e+04 -6.370440927286e+04 -6.682100477136e+04 -6.983597536456e+04 -7.275336767282e+04 -7.557700527400e+04 -7.831049522589e+04 -8.095723248317e+04 -8.352039996100e+04 -8.600296574398e+04 -8.840767556737e+04 -9.073704088572e+04 -9.299332405972e+04 -9.517852578046e+04 -9.729439772596e+04 -9.934255926841e+04 -1.013257802937e+05 -1.049260869737e+03 -6.418974154929e+03 -1.156976562852e+04 -1.651984177847e+04 -2.128184876234e+04 -2.586672671353e+04 -3.028407216120e+04 -3.454244876247e+04 -3.864961221365e+04 -4.261267057645e+04 -4.643819809195e+04 -5.013231675570e+04 -5.370075775441e+04 -5.714890558871e+04 -6.048183386271e+04 -6.370433125898e+04 -6.682092359722e+04 -6.983589017368e+04 -7.275327715952e+04 -7.557690746090e+04 -7.831038757819e+04 -8.095711159704e+04 -8.352026132263e+04 -8.600280345784e+04 -8.840748168870e+04 -9.073680481213e+04 -9.299303098204e+04 -9.517815289972e+04 -9.729390489720e+04 -9.934185892031e+04 -1.013246957027e+05 -1.053689961033e+03 -6.420605348803e+03 -1.157053723069e+04 -1.652025859512e+04 -2.128207346940e+04 -2.586683157642e+04 -3.028409842075e+04 -3.454242281548e+04 -3.864955148367e+04 -4.261258684012e+04 -4.643809922943e+04 -5.013220818632e+04 -5.370064274218e+04 -5.714878607867e+04 -6.048171091542e+04 -6.370420496442e+04 -6.682079354039e+04 -6.983575505808e+04 -7.275313517763e+04 -7.557675587113e+04 -7.831022282136e+04 -8.095692873607e+04 -8.352005403385e+04 -8.600256310706e+04 -8.840719703869e+04 -9.073646057488e+04 -9.299260575748e+04 -9.517761377870e+04 -9.729319349095e+04 -9.934084710517e+04 -1.013231292678e+05 -1.060316683253e+03 -6.423023646019e+03 -1.157166753767e+04 -1.652086036032e+04 -2.128238849922e+04 -2.586696812926e+04 -3.028411755357e+04 -3.454236394946e+04 -3.864944064833e+04 -4.261244186402e+04 -4.643793192978e+04 -5.013202655954e+04 -5.370045186067e+04 -5.714858914361e+04 -6.048150947812e+04 -6.370399940797e+04 -6.682058318683e+04 -6.983553819465e+04 -7.275290924719e+04 -7.557651686651e+04 -7.830996556953e+04 -8.095664589758e+04 -8.351973632611e+04 -8.600219787705e+04 -8.840676749255e+04 -9.073594403271e+04 -9.299197041495e+04 -9.517681065613e+04 -9.729213418157e+04 -9.933933657601e+04 -1.013207882172e+05 -1.070766434758e+03 -6.426784396560e+03 -1.157339762991e+04 -1.652176917636e+04 -2.128285289192e+04 -2.586715395106e+04 -3.028411999895e+04 -3.454224468031e+04 -3.864924047565e+04 -4.261218886048e+04 -4.643764419279e+04 -5.013171678789e+04 -5.370012802522e+04 -5.714825637046e+04 -6.048117024986e+04 -6.370365460028e+04 -6.682023195950e+04 -6.983517813472e+04 -7.275253643093e+04 -7.557612542139e+04 -7.830954748576e+04 -8.095619015794e+04 -8.351922832964e+04 -8.600161790674e+04 -8.840608953349e+04 -9.073513302691e+04 -9.299097743184e+04 -9.517555932109e+04 -9.729048223973e+04 -9.933696673632e+04 -1.013171041611e+05 -1.088569775112e+03 -6.433061449647e+03 -1.157619816491e+04 -1.652321394498e+04 -2.128357806527e+04 -2.586742249845e+04 -3.028408312346e+04 -3.454200298934e+04 -3.864886354439e+04 -4.261172363176e+04 -4.643712255579e+04 -5.013115956458e+04 -5.369954838101e+04 -5.714766263389e+04 -6.048056686841e+04 -6.370304304587e+04 -6.681961115763e+04 -6.983454465520e+04 -7.275188410672e+04 -7.557544481913e+04 -7.830882505447e+04 -8.095540762981e+04 -8.351836071634e+04 -8.600063316330e+04 -8.840494576820e+04 -9.073377551693e+04 -9.298932738665e+04 -9.517348563688e+04 -9.728772829103e+04 -9.933296776871e+04 -1.013108506696e+05 -1.122540015146e+03 -6.444834457310e+03 -1.158110216248e+04 -1.652556914160e+04 -2.128470972495e+04 -2.586780915085e+04 -3.028395552608e+04 -3.454151104249e+04 -3.864811914373e+04 -4.261081137097e+04 -4.643610396698e+04 -5.013007710534e+04 -5.369842978817e+04 -5.714652469044e+04 -6.047941769593e+04 -6.370188508018e+04 -6.681844072332e+04 -6.983335367973e+04 -7.275065831080e+04 -7.557416484104e+04 -7.830746454071e+04 -8.095393369277e+04 -8.351673365325e+04 -8.599880461081e+04 -8.840285500889e+04 -9.073133267017e+04 -9.298637931027e+04 -9.516974316928e+04 -9.728263382432e+04 -9.932542899938e+04 -1.012989894006e+05 -1.198136124180e+03 -6.472451771788e+03 -1.159192726909e+04 -1.652953261703e+04 -2.128575767640e+04 -2.586756623334e+04 -3.028306567908e+04 -3.454022111071e+04 -3.864653461735e+04 -4.260899582387e+04 -4.643411115545e+04 -5.012795540010e+04 -5.369621960315e+04 -5.714425448682e+04 -6.047710283945e+04 -6.369952798229e+04 -6.681603242066e+04 -6.983087640593e+04 -7.274808952276e+04 -7.557147948750e+04 -7.830463784423e+04 -8.095093852411e+04 -8.351353166701e+04 -8.599532317601e+04 -8.839894221732e+04 -9.072668700762e+04 -9.298045409181e+04 -9.516164839840e+04 -9.727106134829e+04 -9.930845076181e+04 -1.012727506843e+05 -1.386509703117e+03 -6.564690189838e+03 -1.164164774204e+04 -1.655238460132e+04 -2.129210515822e+04 -2.586485085081e+04 -3.027615627988e+04 -3.453195001514e+04 -3.863832998918e+04 -4.260142181359e+04 -4.642725917655e+04 -5.012169713290e+04 -5.369035918789e+04 -5.713861032998e+04 -6.047154726210e+04 -6.369399630335e+04 -6.681051760445e+04 -6.982540752793e+04 -7.274270049878e+04 -7.556616496637e+04 -7.829929299434e+04 -8.094528540381e+04 -8.350702862829e+04 -8.598707595819e+04 -8.838763604956e+04 -9.071060632989e+04 -9.295767756210e+04 -9.513053149089e+04 -9.723092244957e+04 -9.925937828798e+04 -1.012069491092e+05 -1.371364555419e+03 -6.847694767551e+03 -1.201149223695e+04 -1.691317309767e+04 -2.160295559671e+04 -2.611324323473e+04 -3.046327410786e+04 -3.466480919143e+04 -3.872572810742e+04 -4.265196660506e+04 -4.644850196681e+04 -5.011982935998e+04 -5.367018639284e+04 -5.710364499155e+04 -6.042414662389e+04 -6.363550308139e+04 -6.674139009428e+04 -6.974533997273e+04 -7.265073588358e+04 -7.546081734367e+04 -7.817869883946e+04 -8.080741644641e+04 -8.335000778389e+04 -8.580965621063e+04 -8.818993035489e+04 -9.049516658589e+04 -9.273102261374e+04 -9.490509770380e+04 -9.702687043307e+04 -9.910340208684e+04 -1.011107183734e+05 -5.769083615594e+03 -4.323298967875e+03 -8.652970353753e+03 -1.396725206190e+04 -1.932494239812e+04 -2.447176805700e+04 -2.935569009053e+04 -3.398389435622e+04 -3.837884465387e+04 -4.256464228154e+04 -4.656309005868e+04 -5.039292263157e+04 -5.407003842034e+04 -5.760800593196e+04 -6.101856591244e+04 -6.431208818965e+04 -6.749794704534e+04 -7.058482429719e+04 -7.358095263814e+04 -7.649430387729e+04 -7.933269505520e+04 -8.210378181434e+04 -8.481484197447e+04 -8.747210221144e+04 -9.007910494923e+04 -9.263281334000e+04 -9.511437501180e+04 -9.746661254883e+04 -9.953744049676e+04 -1.009327439129e+05 -1.003495712095e+05 
        </DataArray>
        <DataArray type="Float64" Name="STRESS_2" format="ascii">
          -2.853295985971e+05 -2.827005109129e+05 -2.801601986137e+05 -2.777068541300e+05 -2.753382425118e+05 -2.730518782839e+05 -2.708450277442e+05 -2.687148173345e+05 -2.666583262926e+05 -2.646726502599e+05 -2.627549416980e+05 -2.609024349152e+05 -2.591124597991e+05 -2.573824490972e+05 -2.557099402485e+05 -2.540925749138e+05 -2.525280953409e+05 -2.510143403678e+05 -2.495492394172e+05 -2.481308060303e+05 -2.467571305139e+05 -2.454263714326e+05 -2.441367462770e+05 -2.428865203910e+05 -2.416739943222e+05 -2.404974876803e+05 -2.393553181706e+05 -2.382457681632e+05 -2.371670197031e+05 -2.361169945821e+05 -2.350929919253e+05 -2.853297585552e+05 -2.827005391862e+05 -2.801601958681e+05 -2.777068405340e+05 -2.753382232996e+05 -2.730518554262e+05 -2.708450020589e+05 -2.687147893146e+05 -2.666582963752e+05 -2.646726186436e+05 -2.627549086292e+05 -2.609024004427e+05 -2.591124240645e+05 -2.573824121556e+05 -2.557099022015e+05 -2.540925357086e+05 -2.525280550353e+05 -2.510142990104e+05 -2.495491969480e+05 -2.481307624911e+05 -2.467570857916e+05 -2.454263255449e+05 -2.441366990985e+05 -2.428864718487e+05 -2.416739442046e+05 -2.404974357192e+05 -2.393552637772e+05 -2.382457099202e+05 -2.371669537102e+05 -2.361169085162e+05 -2.350928440773e+05 -2.853302540733e+05 -2.827006291137e+05 -2.801601904296e+05 -2.777068016599e+05 -2.753381673931e+05 -2.730517881596e+05 -2.708449261738e+05 -2.687147064323e+05 -2.666582076514e+05 -2.646725248843e+05 -2.627548103147e+05 -2.609022980299e+05 -2.591123178335e+05 -2.573823023562e+05 -2.557097889050e+05 -2.540924190880e+05 -2.525279351581e+05 -2.510141758753e+05 -2.495490705323e+05 -2.481306327100e+05 -2.467569526469e+05 -2.454261887827e+05 -2.441365584822e+05 -2.428863270043e+05 -2.416737946230e+05 -2.404972804716e+05 -2.393551010928e+05 -2.382455354927e+05 -2.371667553017e+05 -2.361166484193e+05 -2.350923939147e+05 -2.853311328766e+05 -2.827007958289e+05 -2.801601900266e+05 -2.777067431031e+05 -2.753380792731e+05 -2.730516805136e+05 -2.708448037557e+05 -2.687145722511e+05 -2.666580635651e+05 -2.646723723085e+05 -2.627546501984e+05 -2.609021310992e+05 -2.591121446009e+05 -2.573821231466e+05 -2.557096040616e+05 -2.540922286971e+05 -2.525277394147e+05 -2.510139747366e+05 -2.495488640180e+05 -2.481304206762e+05 -2.467567349295e+05 -2.454259650634e+05 -2.441363283108e+05 -2.428860897502e+05 -2.416735492866e+05 -2.404970255157e+05 -2.393548333391e+05 -2.382452474342e+05 -2.371664253986e+05 -2.361162104204e+05 -2.350916222998e+05 -2.853324819405e+05 -2.827010654464e+05 -2.801602074088e+05 -2.777066732858e+05 -2.753379658304e+05 -2.730515384315e+05 -2.708446404253e+05 -2.687143920370e+05 -2.666578694318e+05 -2.646721662362e+05 -2.627544337291e+05 -2.609019052468e+05 -2.591119101321e+05 -2.573818805986e+05 -2.557093538432e+05 -2.540919710108e+05 -2.525274744317e+05 -2.510137024566e+05 -2.495485844555e+05 -2.481301335915e+05 -2.467564399886e+05 -2.454256617952e+05 -2.441360160772e+05 -2.428857675181e+05 -2.416732155383e+05 -2.404966778696e+05 -2.393544670367e+05 -2.382448509809e+05 -2.371659662512e+05 -2.361155879304e+05 -2.350904942045e+05 -2.853344411922e+05 -2.827014774133e+05 -2.801602598771e+05 -2.777066031115e+05 -2.753378352425e+05 -2.730513690695e+05 -2.708444427011e+05 -2.687141722180e+05 -2.666576316343e+05 -2.646719133832e+05 -2.627541679036e+05 -2.609016279340e+05 -2.591116223272e+05 -2.573815830493e+05 -2.557090470206e+05 -2.540916553963e+05 -2.525271499787e+05 -2.510133693211e+05 -2.495482424279e+05 -2.481297824649e+05 -2.467560792003e+05 -2.454252906778e+05 -2.441356335564e+05 -2.428853721534e+05 -2.416728052155e+05 -2.404962490377e+05 -2.393540128621e+05 -2.382443549710e+05 -2.371653817917e+05 -2.361147705140e+05 -2.350889521882e+05 -2.853372307864e+05 -2.827020896993e+05 -2.801603702455e+05 -2.777065449575e+05 -2.753376960662e+05 -2.730511793168e+05 -2.708442167467e+05 -2.687139187566e+05 -2.666573564810e+05 -2.646716205887e+05 -2.627538602409e+05 -2.609013072780e+05 -2.591112902115e+05 -2.573812404015e+05 -2.557086944963e+05 -2.540912932758e+05 -2.525267785749e+05 -2.510129885293e+05 -2.495478519947e+05 -2.481293819749e+05 -2.467556678967e+05 -2.454248675103e+05 -2.441351969986e+05 -2.428849201303e+05 -2.416723346954e+05 -2.404957550070e+05 -2.393534856578e+05 -2.382437714289e+05 -2.371646761430e+05 -2.361137392341e+05 -2.350869013923e+05 -2.853412045733e+05 -2.827029906088e+05 -2.801605694180e+05 -2.777065131028e+05 -2.753375562100e+05 -2.730509739739e+05 -2.708439662332e+05 -2.687136351948e+05 -2.666570478372e+05 -2.646712922670e+05 -2.627535161409e+05 -2.609009500437e+05 -2.591109216840e+05 -2.573808617576e+05 -2.557083066109e+05 -2.540908965664e+05 -2.525263731701e+05 -2.510125743031e+05 -2.495474285526e+05 -2.481289485515e+05 -2.467552234072e+05 -2.454244103931e+05 -2.441347250877e+05 -2.428844304276e+05 -2.416718227837e+05 -2.404952138219e+05 -2.393529015909e+05 -2.382431117117e+05 -2.371638481082e+05 -2.361124550537e+05 -2.350841784131e+05 -2.853469564119e+05 -2.827043233294e+05 -2.801609034557e+05 -2.777065244889e+05 -2.753374213524e+05 -2.730507534491e+05 -2.708436889221e+05 -2.687133182588e+05 -2.666567024588e+05 -2.646709260763e+05 -2.627531343646e+05 -2.609005564049e+05 -2.591105185889e+05 -2.573804507909e+05 -2.557078888089e+05 -2.540904723858e+05 -2.525259427472e+05 -2.510121372598e+05 -2.495469842156e+05 -2.481284957379e+05 -2.467547604895e+05 -2.454239349891e+05 -2.441342340681e+05 -2.428839193037e+05 -2.416712852337e+05 -2.404946396319e+05 -2.393522711524e+05 -2.382423780148e+05 -2.371628781422e+05 -2.361108346121e+05 -2.350804883244e+05 -2.853555408422e+05 -2.827063346796e+05 -2.801614459730e+05 -2.777066006464e+05 -2.753372915189e+05 -2.730505073907e+05 -2.708433688460e+05 -2.687129492788e+05 -2.666563008443e+05 -2.646705029893e+05 -2.627526972925e+05 -2.609001105248e+05 -2.591100672669e+05 -2.573799962740e+05 -2.557074323628e+05 -2.540900145607e+05 -2.525254834815e+05 -2.510116759090e+05 -2.495465196563e+05 -2.481280260544e+05 -2.467542831463e+05 -2.454234462846e+05 -2.441337292561e+05 -2.428833917029e+05 -2.416707253092e+05 -2.404940321536e+05 -2.393515869561e+05 -2.382415475703e+05 -2.371617045422e+05 -2.361087026147e+05 -2.350752755828e+05 -2.853689714322e+05 -2.827094778751e+05 -2.801623223808e+05 -2.777067670727e+05 -2.753371505719e+05 -2.730501979576e+05 -2.708429566885e+05 -2.687124731165e+05 -2.666557855931e+05 -2.646699657734e+05 -2.627521492987e+05 -2.608995596428e+05 -2.591095185082e+05 -2.573794529162e+05 -2.557068960775e+05 -2.540894860389e+05 -2.525249624293e+05 -2.510111611453e+05 -2.495460091431e+05 -2.481275166807e+05 -2.467537707218e+05 -2.454229250703e+05 -2.441331916244e+05 -2.428828271147e+05 -2.416701187314e+05 -2.404933594880e+05 -2.393508025882e+05 -2.382405441262e+05 -2.371601779270e+05 -2.361056934412e+05 -2.350674379288e+05 -2.853914934116e+05 -2.827146567321e+05 -2.801637581053e+05 -2.777070482607e+05 -2.753369347604e+05 -2.730497143089e+05 -2.708423167067e+05 -2.687117420859e+05 -2.666550052997e+05 -2.646691636078e+05 -2.627513438697e+05 -2.608987633267e+05 -2.591087392729e+05 -2.573786958036e+05 -2.557061637071e+05 -2.540887791746e+05 -2.525242802581e+05 -2.510105014688e+05 -2.495453683246e+05 -2.481268894737e+05 -2.467531499087e+05 -2.454223011166e+05 -2.441325512610e+05 -2.428821521869e+05 -2.416693826077e+05 -2.404925208666e+05 -2.393497860555e+05 -2.382391763316e+05 -2.371579610991e+05 -2.361010162619e+05 -2.350546023462e+05 -2.854334286884e+05 -2.827239427215e+05 -2.801661752049e+05 -2.777074378834e+05 -2.753364535149e+05 -2.730487538040e+05 -2.708410784917e+05 -2.687103525995e+05 -2.666535467620e+05 -2.646676891721e+05 -2.627498875424e+05 -2.608973465543e+05 -2.591073753707e+05 -2.573773925876e+05 -2.557049248155e+05 -2.540876056055e+05 -2.525231700707e+05 -2.510094507220e+05 -2.495443700583e+05 -2.481259339510e+05 -2.467522228007e+05 -2.454213823576e+05 -2.441316129738e+05 -2.428811559731e+05 -2.416682773059e+05 -2.404912343491e+05 -2.393481968291e+05 -2.382369931337e+05 -2.371542746292e+05 -2.360927570753e+05 -2.350309670647e+05 -2.855253240140e+05 -2.827437402514e+05 -2.801704210957e+05 -2.777075188828e+05 -2.753349677441e+05 -2.730464073471e+05 -2.708381917412e+05 -2.687071485896e+05 -2.666501953724e+05 -2.646643143045e+05 -2.627465746746e+05 -2.608941512690e+05 -2.591043318255e+05 -2.573745195847e+05 -2.557022304965e+05 -2.540850900965e+05 -2.525208266458e+05 -2.510072657844e+05 -2.495423227848e+05 -2.481239946232e+05 -2.467503520711e+05 -2.454195303666e+05 -2.441297208839e+05 -2.428791592140e+05 -2.416661073765e+05 -2.404888045665e+05 -2.393453135056e+05 -2.382330144623e+05 -2.371469929745e+05 -2.360750144115e+05 -2.349795977612e+05 -2.857735672523e+05 -2.828066269356e+05 -2.801837910222e+05 -2.777058392777e+05 -2.753283375365e+05 -2.730378875991e+05 -2.708288078176e+05 -2.686973346959e+05 -2.666402034806e+05 -2.646543247572e+05 -2.627367257577e+05 -2.608845477295e+05 -2.590950502392e+05 -2.573656124619e+05 -2.556937312582e+05 -2.540770158280e+05 -2.525131820993e+05 -2.510000451171e+05 -2.495355120185e+05 -2.481175737940e+05 -2.467442963653e+05 -2.454138114830e+05 -2.441243020726e+05 -2.428739781724e+05 -2.416610160303e+05 -2.404834042753e+05 -2.393385164635e+05 -2.382219271269e+05 -2.371241034510e+05 -2.360211395920e+05 -2.348431316979e+05 -2.868295111200e+05 -2.832122837631e+05 -2.803354735876e+05 -2.777432938434e+05 -2.753102015099e+05 -2.729909132501e+05 -2.707661851268e+05 -2.686260458243e+05 -2.665641848826e+05 -2.645759135480e+05 -2.626573630439e+05 -2.608051397904e+05 -2.590161661961e+05 -2.572875965452e+05 -2.556167707633e+05 -2.540011817164e+05 -2.524384525417e+05 -2.509263176900e+05 -2.494626028961e+05 -2.480452031996e+05 -2.466720520029e+05 -2.453410753138e+05 -2.440501085681e+05 -2.427967430167e+05 -2.415780178718e+05 -2.403897735089e+05 -2.392252225899e+05 -2.380716532394e+05 -2.369024984725e+05 -2.356292002076e+05 -2.341324433595e+05 -2.790976742610e+05 -2.791281695442e+05 -2.783630847316e+05 -2.769885325885e+05 -2.752959730506e+05 -2.734407381597e+05 -2.715103453428e+05 -2.695557407595e+05 -2.676098113710e+05 -2.656913889330e+05 -2.638120075987e+05 -2.619785974695e+05 -2.601951522260e+05 -2.584638007216e+05 -2.567855075936e+05 -2.551605577844e+05 -2.535889021231e+05 -2.520704226991e+05 -2.506051609662e+05 -2.491935455607e+05 -2.478366448984e+05 -2.465364951342e+05 -2.452965715257e+05 -2.441225132891e+05 -2.430228184767e+05 -2.420110540479e+05 -2.411112414189e+05 -2.403640178581e+05 -2.398442459678e+05 -2.396995468231e+05 -2.401846346848e+05 
        </DataArray>
        <DataArray type="Float64" Name="STRESS_3" format="ascii">
          -2.858712875423e+05 -2.832215792565e+05 -2.806679232524e+05 -2.782022206895e+05 -2.758214013660e+05 -2.735229284322e+05 -2.713041383252e+05 -2.691622236623e+05 -2.670943089038e+05 -2.650975168959e+05 -2.631690144731e+05 -2.613060416828e+05 -2.595059284993e+05 -2.577661042086e+05 -2.560841007508e+05 -2.544575532971e+05 -2.528841973514e+05 -2.513618654797e+05 -2.498884817822e+05 -2.484620559650e+05 -2.470806765889e+05 -2.457425031416e+05 -2.444457574449e+05 -2.431887132538e+05 -2.419696838054e+05 -2.407870036663e+05 -2.396389975329e+05 -2.385239082723e+05 -2.374396986869e+05 -2.363834462469e+05 -2.353490532562e+05 -2.858713962342e+05 -2.832215863202e+05 -2.806679275000e+05 -2.782022308467e+05 -2.758214147891e+05 -2.735229425182e+05 -2.713041513575e+05 -2.691622347341e+05 -2.670943176730e+05 -2.650975231342e+05 -2.631690181781e+05 -2.613060427554e+05 -2.595059270120e+05 -2.577661001899e+05 -2.560840942909e+05 -2.544575443522e+05 -2.528841860215e+05 -2.513618518542e+05 -2.498884658446e+05 -2.484620378289e+05 -2.470806561973e+05 -2.457424805505e+05 -2.444457325508e+05 -2.431886859151e+05 -2.419696535447e+05 -2.407869695669e+05 -2.396389575723e+05 -2.385238579152e+05 -2.374396270497e+05 -2.363833248373e+05 -2.353487988557e+05 -2.858723803137e+05 -2.832219094843e+05 -2.806681028237e+05 -2.782023555471e+05 -2.758215133068e+05 -2.735230226615e+05 -2.713042166479e+05 -2.691622872044e+05 -2.670943587370e+05 -2.650975537914e+05 -2.631690390875e+05 -2.613060545140e+05 -2.595059300076e+05 -2.577660947898e+05 -2.560840806855e+05 -2.544575228125e+05 -2.528841567209e+05 -2.513618148967e+05 -2.498884213164e+05 -2.484619857553e+05 -2.470805967027e+05 -2.457424135170e+05 -2.444456578728e+05 -2.431886033518e+05 -2.419695627167e+05 -2.407868695233e+05 -2.396388459697e+05 -2.385237279714e+05 -2.374394574843e+05 -2.363830469031e+05 -2.353481706716e+05 -2.858741054929e+05 -2.832224737031e+05 -2.806684076616e+05 -2.782025719229e+05 -2.758216839541e+05 -2.735231614249e+05 -2.713043296911e+05 -2.691623782842e+05 -2.670944301969e+05 -2.650976074171e+05 -2.631690761362e+05 -2.613060759841e+05 -2.595059366137e+05 -2.577660870649e+05 -2.560840591784e+05 -2.544574877836e+05 -2.528841085410e+05 -2.513617537021e+05 -2.498883473165e+05 -2.484618989817e+05 -2.470804971864e+05 -2.457423011672e+05 -2.444455324612e+05 -2.431884644615e+05 -2.419694095395e+05 -2.407867004784e+05 -2.396386568671e+05 -2.385235069359e+05 -2.374391671052e+05 -2.363825664110e+05 -2.353470748041e+05 -2.858767092403e+05 -2.832233163631e+05 -2.806688582329e+05 -2.782028893971e+05 -2.758219334124e+05 -2.735233637341e+05 -2.713044944147e+05 -2.691625109473e+05 -2.670945345633e+05 -2.650976860788e+05 -2.631691310909e+05 -2.613061086501e+05 -2.595059481273e+05 -2.577660782765e+05 -2.560840307603e+05 -2.544574402130e+05 -2.528840422645e+05 -2.513616689638e+05 -2.498882443803e+05 -2.484617778805e+05 -2.470803578567e+05 -2.457421434232e+05 -2.444453559761e+05 -2.431882685349e+05 -2.419691928764e+05 -2.407864605696e+05 -2.396383874105e+05 -2.385231898047e+05 -2.374387456380e+05 -2.363818571860e+05 -2.353454317253e+05 -2.858804099386e+05 -2.832244910019e+05 -2.806694736235e+05 -2.782033171262e+05 -2.758222665849e+05 -2.735236324680e+05 -2.713047123036e+05 -2.691626859727e+05 -2.670946720104e+05 -2.650977897610e+05 -2.631692038029e+05 -2.613061524355e+05 -2.595059644948e+05 -2.577660684084e+05 -2.560839955197e+05 -2.544573804567e+05 -2.528839582864e+05 -2.513615612454e+05 -2.498881130524e+05 -2.484616230900e+05 -2.470801793824e+05 -2.457419409658e+05 -2.444451288545e+05 -2.431880157394e+05 -2.419689125660e+05 -2.407861489528e+05 -2.396380353985e+05 -2.385227713707e+05 -2.374381795700e+05 -2.363808801329e+05 -2.353431143601e+05 -2.858855500662e+05 -2.832260745703e+05 -2.806702765983e+05 -2.782038624071e+05 -2.758226850432e+05 -2.735239663954e+05 -2.713049805747e+05 -2.691628997292e+05 -2.670948386923e+05 -2.650979146243e+05 -2.631692906144e+05 -2.613062038360e+05 -2.595059826938e+05 -2.577660549170e+05 -2.560839515197e+05 -2.544573066890e+05 -2.528838554977e+05 -2.513614297890e+05 -2.498879530965e+05 -2.484614346396e+05 -2.470799621317e+05 -2.457416943608e+05 -2.444448518652e+05 -2.431877067919e+05 -2.419685690146e+05 -2.407857654179e+05 -2.396375989720e+05 -2.385222454574e+05 -2.374374497829e+05 -2.363795754114e+05 -2.353399207092e+05 -2.858926860946e+05 -2.832281890651e+05 -2.806713014025e+05 -2.782045349523e+05 -2.758231891527e+05 -2.735243611566e+05 -2.713052925399e+05 -2.691631443435e+05 -2.670950261513e+05 -2.650980519453e+05 -2.631693829749e+05 -2.613062549154e+05 -2.595059952054e+05 -2.577660307638e+05 -2.560838922399e+05 -2.544572133142e+05 -2.528837287311e+05 -2.513612700555e+05 -2.498877605474e+05 -2.484612090862e+05 -2.470797030794e+05 -2.457414008768e+05 -2.444445224784e+05 -2.431873391826e+05 -2.419681592563e+05 -2.407853058913e+05 -2.396370715478e+05 -2.385215985269e+05 -2.374365221979e+05 -2.363778425615e+05 -2.353355169453e+05 -2.859027717188e+05 -2.832310499254e+05 -2.806726149213e+05 -2.782053586050e+05 -2.758237859539e+05 -2.735248151263e+05 -2.713056412714e+05 -2.691634095668e+05 -2.670952220663e+05 -2.650981883741e+05 -2.631694668049e+05 -2.613062912344e+05 -2.595059875237e+05 -2.577659816100e+05 -2.560838035072e+05 -2.544570862549e+05 -2.528835642338e+05 -2.513610684703e+05 -2.498875219420e+05 -2.484609330569e+05 -2.470793888249e+05 -2.457410468806e+05 -2.444441265807e+05 -2.431868978526e+05 -2.419676668834e+05 -2.407847515128e+05 -2.396364291405e+05 -2.385207942128e+05 -2.374353250741e+05 -2.363754979411e+05 -2.353293207179e+05 -2.859175374932e+05 -2.832350619921e+05 -2.806743571592e+05 -2.782063942732e+05 -2.758245030856e+05 -2.735253380826e+05 -2.713060248526e+05 -2.691636853811e+05 -2.670954106417e+05 -2.650983039919e+05 -2.631695192848e+05 -2.613062876410e+05 -2.595059326868e+05 -2.577658790710e+05 -2.560836556961e+05 -2.544568947725e+05 -2.528833300436e+05 -2.513607919578e+05 -2.498872030246e+05 -2.484605708953e+05 -2.470789820467e+05 -2.457405930313e+05 -2.444436223064e+05 -2.431863379333e+05 -2.419670428886e+05 -2.407840471336e+05 -2.396356056792e+05 -2.385197425946e+05 -2.374337046738e+05 -2.363721887966e+05 -2.353202575863e+05 -2.859403398902e+05 -2.832410135474e+05 -2.806768199539e+05 -2.782077781575e+05 -2.758254076373e+05 -2.735259586404e+05 -2.713064476972e+05 -2.691639590523e+05 -2.670955662234e+05 -2.650983632271e+05 -2.631694969490e+05 -2.613061945035e+05 -2.595057760505e+05 -2.577656641666e+05 -2.560833858469e+05 -2.544565721597e+05 -2.528829558100e+05 -2.513603663442e+05 -2.498867254074e+05 -2.484600396155e+05 -2.470783946044e+05 -2.457399456422e+05 -2.444429095850e+05 -2.431855517340e+05 -2.419661697217e+05 -2.407830604611e+05 -2.396344440511e+05 -2.385182381633e+05 -2.374313361236e+05 -2.363672133581e+05 -2.353062122861e+05 -2.859783279405e+05 -2.832505071169e+05 -2.806806190863e+05 -2.782098155533e+05 -2.758266423476e+05 -2.735267244443e+05 -2.713069027829e+05 -2.691641900867e+05 -2.670956252481e+05 -2.650982837177e+05 -2.631693022041e+05 -2.613059010525e+05 -2.595053955407e+05 -2.577652047993e+05 -2.560828528693e+05 -2.544559685778e+05 -2.528822827576e+05 -2.513596234599e+05 -2.498859110963e+05 -2.484591511050e+05 -2.470774277864e+05 -2.457388947158e+05 -2.444417650672e+05 -2.431842978328e+05 -2.419647781306e+05 -2.407814800860e+05 -2.396325714476e+05 -2.385158122024e+05 -2.374275263278e+05 -2.363590913504e+05 -2.352826165109e+05 -2.860491955534e+05 -2.832670942299e+05 -2.806870534828e+05 -2.782132999828e+05 -2.758286527715e+05 -2.735277838736e+05 -2.713073337289e+05 -2.691642065517e+05 -2.670953581896e+05 -2.650978077766e+05 -2.631686587141e+05 -2.613051132626e+05 -2.595044776101e+05 -2.577641660465e+05 -2.560816995715e+05 -2.544547055374e+05 -2.528809129187e+05 -2.513581488253e+05 -2.498843315291e+05 -2.484574637228e+05 -2.470756234597e+05 -2.457369542073e+05 -2.444396535894e+05 -2.431819603580e+05 -2.419621402117e+05 -2.407784506770e+05 -2.396290221814e+05 -2.385113880379e+05 -2.374207736865e+05 -2.363442792286e+05 -2.352381159437e+05 -2.862087832831e+05 -2.833011251462e+05 -2.806978263293e+05 -2.782195349382e+05 -2.758330482430e+05 -2.735304484296e+05 -2.713083855559e+05 -2.691639633715e+05 -2.670941808606e+05 -2.650959966522e+05 -2.631664256310e+05 -2.613025918129e+05 -2.595017459203e+05 -2.577612671389e+05 -2.560786562148e+05 -2.544515281546e+05 -2.528776016253e+05 -2.513546908101e+05 -2.498806959506e+05 -2.484535950561e+05 -2.470714380633e+05 -2.457323436778e+05 -2.444345036667e+05 -2.431761913732e+05 -2.419557668992e+05 -2.407716228089e+05 -2.396218905378e+05 -2.385033366003e+05 -2.374077950147e+05 -2.363114774795e+05 -2.351380704436e+05 -2.866912017285e+05 -2.834155985458e+05 -2.807127656593e+05 -2.782149168421e+05 -2.758300532433e+05 -2.735316175178e+05 -2.713116143767e+05 -2.691669082442e+05 -2.670953154649e+05 -2.650946105349e+05 -2.631623710891e+05 -2.612960340651e+05 -2.594929815763e+05 -2.577506099128e+05 -2.560663771304e+05 -2.544378322275e+05 -2.528626343386e+05 -2.513385644862e+05 -2.498635357758e+05 -2.484356017511e+05 -2.470529637602e+05 -2.457139743707e+05 -2.444171212263e+05 -2.431609623746e+05 -2.419439294928e+05 -2.407638189961e+05 -2.396165256455e+05 -2.384929834120e+05 -2.373718354343e+05 -2.362019920693e+05 -2.348529220345e+05 -2.882012831603e+05 -2.842851525984e+05 -2.811311631546e+05 -2.783611185317e+05 -2.758235613973e+05 -2.734454150484e+05 -2.711884792451e+05 -2.690312087135e+05 -2.669604981901e+05 -2.649677508040e+05 -2.630468965961e+05 -2.611933417632e+05 -2.594033902586e+05 -2.576739083964e+05 -2.560021255150e+05 -2.543855041822e+05 -2.528216513802e+05 -2.513082480133e+05 -2.498429807155e+05 -2.484234653604e+05 -2.470471462872e+05 -2.457111548010e+05 -2.444120913150e+05 -2.431456844026e+05 -2.419062354858e+05 -2.406856963652e+05 -2.394721112390e+05 -2.382469964104e+05 -2.369811364152e+05 -2.356575315746e+05 -2.341784679121e+05 -2.794058949883e+05 -2.792244634937e+05 -2.784030705374e+05 -2.770059923532e+05 -2.753031697326e+05 -2.734429672889e+05 -2.715105730327e+05 -2.695571694157e+05 -2.676117952372e+05 -2.656935941202e+05 -2.638142648143e+05 -2.619808258807e+05 -2.601973187325e+05 -2.584658976085e+05 -2.567875399259e+05 -2.551625359765e+05 -2.535908370006e+05 -2.520723214257e+05 -2.506070224877e+05 -2.491953541823e+05 -2.478383600805e+05 -2.465380342433e+05 -2.452977797166e+05 -2.441231091456e+05 -2.430233450170e+05 -2.420136426880e+05 -2.411176816430e+05 -2.403778963749e+05 -2.398733272252e+05 -2.397628285334e+05 -2.403435116287e+05 
        </DataArray>
        <DataArray type="Float64" Name="STRESS_XX" format="ascii">
          -1.040206038694e+03 -6.415599598397e+03 -1.156813713929e+04 -1.651893420123e+04 -2.128133047818e+04 -2.586644934285e+04 -3.028395206317e+04 -3.454243261440e+04 -3.864966474511e+04 -4.261276837023e+04 -4.643832540764e+04 -5.013246377180e+04 -5.370091803231e+04 -5.714907591232e+04 -6.048201259029e+04 -6.370451883948e+04 -6.682112149426e+04 -6.983610136718e+04 -7.275350597103e+04 -7.557715977863e+04 -7.831067136918e+04 -8.095743717845e+04 -8.352064241893e+04 -8.600325781301e+04 -8.840803296702e+04 -9.073748467329e+04 -9.299388369818e+04 -9.517924573159e+04 -9.729535629956e+04 -9.934392502339e+04 -1.013279017396e+05 -3.773160068615e+03 -9.074357920049e+03 -1.415334281245e+04 -1.903298938421e+04 -2.372677952476e+04 -2.824576972646e+04 -3.259951615928e+04 -3.679650616134e+04 -4.084441192765e+04 -4.475025710240e+04 -4.852053335656e+04 -5.216128290111e+04 -5.567815975696e+04 -5.907647505048e+04 -6.236123160776e+04 -6.553715119131e+04 -6.860869559040e+04 -7.158008367966e+04 -7.445530395699e+04 -7.723812521441e+04 -7.993210273808e+04 -8.254058289897e+04 -8.506670289509e+04 -8.751338828448e+04 -8.988334523414e+04 -9.217904827435e+04 -9.440272285181e+04 -9.655632389388e+04 -9.864151873337e+04 -1.006597021024e+05 -1.026126674601e+05 -1.186703525827e+04 -1.694847095022e+04 -2.180961871817e+04 -2.647854599730e+04 -3.096915362883e+04 -3.529229810639e+04 -3.945722524981e+04 -4.347210633158e+04 -4.734431223867e+04 -5.108058225992e+04 -5.468713983423e+04 -5.816977444395e+04 -6.153390076733e+04 -6.478460347433e+04 -6.792667051134e+04 -7.096462032346e+04 -7.390272129074e+04 -7.674500873232e+04 -7.949529693529e+04 -8.215718917711e+04 -8.473408384517e+04 -8.722917782947e+04 -8.964546709126e+04 -9.198574280339e+04 -9.425258297677e+04 -9.644833651319e+04 -9.857509494760e+04 -1.006346330965e+05 -1.026282671926e+05 -1.045564585169e+05 -1.064175683612e+05 -2.501091070184e+04 -2.973538019263e+04 -3.424275826472e+04 -3.856948919645e+04 -4.273014273552e+04 -4.673524864503e+04 -5.059354784684e+04 -5.431269857885e+04 -5.789958173450e+04 -6.136047514195e+04 -6.470116680944e+04 -6.792703541673e+04 -7.104310713606e+04 -7.405409874923e+04 -7.696444974234e+04 -7.977834759575e+04 -8.249974720331e+04 -8.513238557303e+04 -8.767979421592e+04 -9.014530752885e+04 -9.253206888800e+04 -9.484303288234e+04 -9.708096576199e+04 -9.924844063500e+04 -1.013478271842e+05 -1.033812704992e+05 -1.053506441968e+05 -1.072574303807e+05 -1.091023732516e+05 -1.108844122228e+05 -1.125963110557e+05 -4.269989622120e+04 -4.694376131629e+04 -5.097499712480e+04 -5.484119299142e+04 -5.855779529529e+04 -6.213488756608e+04 -6.558053075230e+04 -6.890169147074e+04 -7.210459153442e+04 -7.519488711068e+04 -7.817778072550e+04 -8.105809780864e+04 -8.384034169672e+04 -8.652873415395e+04 -8.912724558380e+04 -9.163961823921e+04 -9.406938475482e+04 -9.641988101944e+04 -9.869425793430e+04 -1.008954878948e+05 -1.030263709530e+05 -1.050895358594e+05 -1.070874397123e+05 -1.090223618757e+05 -1.108963916866e+05 -1.127113998886e+05 -1.144689665147e+05 -1.161701783727e+05 -1.178150062772e+05 -1.194003276587e+05 -1.209113188859e+05 -6.425456544697e+04 -6.791241134138e+04 -7.136337307710e+04 -7.466837478742e+04 -7.784388389277e+04 -8.089943009333e+04 -8.384224236442e+04 -8.667844402582e+04 -8.941345330107e+04 -9.205216888276e+04 -9.459907941345e+04 -9.705833640582e+04 -9.943380583916e+04 -1.017291063056e+05 -1.039476364010e+05 -1.060925964314e+05 -1.081670036704e+05 -1.101737058998e+05 -1.121153895507e+05 -1.139945865521e+05 -1.158136782056e+05 -1.175748962887e+05 -1.192803209014e+05 -1.209318737206e+05 -1.225313023626e+05 -1.240801427350e+05 -1.255796166297e+05 -1.270303269951e+05 -1.284312949622e+05 -1.297768591942e+05 -1.310428458058e+05 -8.884711954999e+04 -9.183566776935e+04 -9.462443602534e+04 -9.728912293412e+04 -9.984727808729e+04 -1.023077804627e+05 -1.046769042416e+05 -1.069598094622e+05 -1.091609969687e+05 -1.112845009052e+05 -1.133339948893e+05 -1.153128612977e+05 -1.172242394103e+05 -1.190710591717e+05 -1.208560668828e+05 -1.225818438578e+05 -1.242508205019e+05 -1.258652866571e+05 -1.274273992928e+05 -1.289391875600e+05 -1.304025550717e+05 -1.318192804746e+05 -1.331910137922e+05 -1.345192684148e+05 -1.358054019130e+05 -1.370505676123e+05 -1.382555775498e+05 -1.394204787547e+05 -1.405431955373e+05 -1.416151240995e+05 -1.426012350086e+05 -1.155333000578e+05 -1.177943901261e+05 -1.198643596517e+05 -1.218341782443e+05 -1.237224261964e+05 -1.255372435877e+05 -1.272838608877e+05 -1.289663899288e+05 -1.305883347210e+05 -1.321527906548e+05 -1.336625469757e+05 -1.351201511435e+05 -1.365279532776e+05 -1.378881361852e+05 -1.392027383804e+05 -1.404736694265e+05 -1.417027224660e+05 -1.428915823202e+05 -1.440418312247e+05 -1.451549524942e+05 -1.462323315277e+05 -1.472752551242e+05 -1.482849064984e+05 -1.492623557612e+05 -1.502085367251e+05 -1.511241870654e+05 -1.520096720689e+05 -1.528644289282e+05 -1.536851693931e+05 -1.544600168574e+05 -1.551418368975e+05 -1.432888790033e+05 -1.447913281632e+05 -1.461133064056e+05 -1.473603455059e+05 -1.485518534578e+05 -1.496951453043e+05 -1.507943520597e+05 -1.518524908103e+05 -1.528720271833e+05 -1.538550790237e+05 -1.548035150933e+05 -1.557190143126e+05 -1.566031056554e+05 -1.574571946096e+05 -1.582825834351e+05 -1.590804830090e+05 -1.598520237412e+05 -1.605982607439e+05 -1.613201786789e+05 -1.620186930164e+05 -1.626946502007e+05 -1.633488250917e+05 -1.639819151988e+05 -1.645945292541e+05 -1.651871598071e+05 -1.657601110426e+05 -1.663132798491e+05 -1.668454582153e+05 -1.673520581862e+05 -1.678176626131e+05 -1.681819797964e+05 -1.710494476991e+05 -1.717895461646e+05 -1.723627319727e+05 -1.728867575700e+05 -1.733814294285e+05 -1.738531417463e+05 -1.743049008132e+05 -1.747386210974e+05 -1.751557267526e+05 -1.755573562161e+05 -1.759444565270e+05 -1.763178371167e+05 -1.766782054987e+05 -1.770261894353e+05 -1.773623544509e+05 -1.776872125411e+05 -1.780012311383e+05 -1.783048355337e+05 -1.785984126419e+05 -1.788823097286e+05 -1.791568340104e+05 -1.794222479462e+05 -1.796787630559e+05 -1.799265259539e+05 -1.801655868305e+05 -1.803958141540e+05 -1.806166299615e+05 -1.808261616464e+05 -1.810184546695e+05 -1.811743125627e+05 -1.812192674184e+05 -1.977522860324e+05 -1.977524875948e+05 -1.976042168201e+05 -1.974326004091e+05 -1.972570474152e+05 -1.970828957205e+05 -1.969120270771e+05 -1.967452805104e+05 -1.965830719594e+05 -1.964255949625e+05 -1.962729079232e+05 -1.961249832557e+05 -1.959817371464e+05 -1.958430492073e+05 -1.957087756886e+05 -1.955787563069e+05 -1.954528204210e+05 -1.953307875096e+05 -1.952124690502e+05 -1.950976656472e+05 -1.949861653500e+05 -1.948777375712e+05 -1.947721255817e+05 -1.946690306223e+05 -1.945680754831e+05 -1.944687045050e+05 -1.943698711172e+05 -1.942690289451e+05 -1.941587937470e+05 -1.940158990030e+05 -1.937503148357e+05 -2.223796295117e+05 -2.216842994672e+05 -2.208683716590e+05 -2.200548753202e+05 -2.192613134888e+05 -2.184917439660e+05 -2.177469393257e+05 -2.170267184807e+05 -2.163305521582e+05 -2.156577536194e+05 -2.150075577583e+05 -2.143791627299e+05 -2.137717538163e+05 -2.131845200207e+05 -2.126166628604e+05 -2.120674016872e+05 -2.115359767156e+05 -2.110216484444e+05 -2.105236972230e+05 -2.100414193456e+05 -2.095741237978e+05 -2.091211249440e+05 -2.086817328914e+05 -2.082552347897e+05 -2.078408519749e+05 -2.074376251337e+05 -2.070440546595e+05 -2.066569211162e+05 -2.062673194951e+05 -2.058473480790e+05 -2.052886458128e+05 -2.440051315369e+05 -2.426694180105e+05 -2.412623835827e+05 -2.398848312553e+05 -2.385489533968e+05 -2.372570651251e+05 -2.360088931680e+05 -2.348033433357e+05 -2.336390284373e+05 -2.325144617060e+05 -2.314281339801e+05 -2.303785518059e+05 -2.293642528499e+05 -2.283838178987e+05 -2.274358730886e+05 -2.265190944229e+05 -2.256322053938e+05 -2.247739774867e+05 -2.239432251898e+05 -2.231388023651e+05 -2.223595946686e+05 -2.216045102334e+05 -2.208724664716e+05 -2.201623679456e+05 -2.194730655809e+05 -2.188032370134e+05 -2.181509946978e+05 -2.175124883647e+05 -2.168770161857e+05 -2.162103554726e+05 -2.153790240148e+05 -2.618584993517e+05 -2.599134065145e+05 -2.580041705062e+05 -2.561609107051e+05 -2.543795926498e+05 -2.526585899871e+05 -2.509966097470e+05 -2.493920260489e+05 -2.478428963408e+05 -2.463471190078e+05 -2.449025566920e+05 -2.435071092614e+05 -2.421587466533e+05 -2.408555223919e+05 -2.395955737021e+05 -2.383771192445e+05 -2.371984509215e+05 -2.360579279249e+05 -2.349539673190e+05 -2.338850354157e+05 -2.328496399814e+05 -2.318463236082e+05 -2.308736634866e+05 -2.299302725596e+05 -2.290147902158e+05 -2.281257717427e+05 -2.272611613817e+05 -2.264162568081e+05 -2.255766956150e+05 -2.246956808654e+05 -2.235984110744e+05 -2.754981159880e+05 -2.728233813813e+05 -2.704547219170e+05 -2.682447062407e+05 -2.661331460930e+05 -2.640985284177e+05 -2.621331835376e+05 -2.602339308078e+05 -2.583987790729e+05 -2.566258722387e+05 -2.549132254026e+05 -2.532587152097e+05 -2.516601355075e+05 -2.501152560229e+05 -2.486218689811e+05 -2.471778207604e+05 -2.457810343099e+05 -2.444295241698e+05 -2.431214100332e+05 -2.418549291745e+05 -2.406284503820e+05 -2.394404884329e+05 -2.382897066015e+05 -2.371748790147e+05 -2.360947192601e+05 -2.350473424412e+05 -2.340287179377e+05 -2.330284238650e+05 -2.320181544766e+05 -2.309206912502e+05 -2.294990781628e+05 -2.850300626406e+05 -2.815826075377e+05 -2.785811968995e+05 -2.758910089207e+05 -2.734133864550e+05 -2.710902980889e+05 -2.688876281770e+05 -2.667846269307e+05 -2.647680458504e+05 -2.628289453098e+05 -2.609609370646e+05 -2.591591891316e+05 -2.574198489867e+05 -2.557396956532e+05 -2.541159263053e+05 -2.525460152670e+05 -2.510276173612e+05 -2.495584926469e+05 -2.481364359032e+05 -2.467591991846e+05 -2.454243895058e+05 -2.441293216418e+05 -2.428707827343e+05 -2.416446443574e+05 -2.404451894844e+05 -2.392639012099e+05 -2.380871914084e+05 -2.368919755093e+05 -2.356367004373e+05 -2.342424224929e+05 -2.325379806345e+05 -2.793902984744e+05 -2.792223293468e+05 -2.783973400022e+05 -2.770007413449e+05 -2.752993878137e+05 -2.734404571403e+05 -2.715087246986e+05 -2.695546978888e+05 -2.676091330651e+05 -2.656909382638e+05 -2.638116986909e+05 -2.619783767185e+05 -2.601949858672e+05 -2.584636669421e+05 -2.567853915521e+05 -2.551604483741e+05 -2.535887896902e+05 -2.520702971759e+05 -2.506050100056e+05 -2.491933523129e+05 -2.478363850766e+05 -2.465361330614e+05 -2.452960550765e+05 -2.441217685059e+05 -2.430222738987e+05 -2.420121352951e+05 -2.411156733431e+05 -2.403755410553e+05 -2.398713639455e+05 -2.397625188246e+05 -2.403381517857e+05 
        </DataArray>
        <DataArray type="Float64" Name="STRESS_XY" format="ascii">
          2.449190100764e+02 1.644899280655e+02 1.189650067514e+02 8.905484283229e+01 6.861032384172e+01 5.438150699341e+01 4.435865560247e+01 3.721598657145e+01 3.205641789202e+01 2.826560794952e+01 2.541897735335e+01 2.322000528509e+01 2.145849818885e+01 1.998169257003e+01 1.867423544026e+01 1.744368425855e+01 1.620964942471e+01 1.489522325325e+01 1.341937516907e+01 1.168995274440e+01 9.595997012723e+00 6.999474207132e+00 3.725197846094e+00 -4.511582515414e-01 -5.817231284907e+00 -1.273892816170e+01 -2.166998017470e+01 -3.313185097836e+01 -4.758306591802e+01 -6.490821909258e+01 -8.194710829401e+01 2.776553501243e+04 2.699773845149e+04 2.624859415711e+04 2.552571807741e+04 2.482906771870e+04 2.415764569080e+04 2.351032325711e+04 2.288600485803e+04 2.228365574878e+04 2.170230182034e+04 2.114102512937e+04 2.059895888074e+04 2.007528339098e+04 1.956922244606e+04 1.908004030384e+04 1.860703906382e+04 1.814955630653e+04 1.770696310263e+04 1.727866217994e+04 1.686408639622e+04 1.646269735526e+04 1.607398420422e+04 1.569746257045e+04 1.533267354433e+04 1.497918136075e+04 1.463656761717e+04 1.430441136542e+04 1.398222300229e+04 1.366922244893e+04 1.336360825279e+04 1.305913181540e+04 5.446525615386e+04 5.295820080339e+04 5.148853571621e+04 5.007052609563e+04 4.870398766773e+04 4.738694230562e+04 4.611717125775e+04 4.489252460081e+04 4.371097230718e+04 4.257060364803e+04 4.146961791429e+04 4.040631492827e+04 3.937908679712e+04 3.838641087346e+04 3.742684401320e+04 3.649901723128e+04 3.560163111743e+04 3.473345195983e+04 3.389330822967e+04 3.308008744113e+04 3.229273341236e+04 3.153024410215e+04 3.079166954345e+04 3.007610942338e+04 2.938270922342e+04 2.871064875095e+04 2.805910441940e+04 2.742712225040e+04 2.681319396321e+04 2.621385777677e+04 2.561714115537e+04 7.907435426788e+04 7.688398006619e+04 7.474993452812e+04 7.269120863183e+04 7.070727762540e+04 6.879521466455e+04 6.695178670906e+04 6.517387001560e+04 6.345851690119e+04 6.180295338900e+04 6.020456521697e+04 5.866088408225e+04 5.716957567142e+04 5.572842960409e+04 5.433535061885e+04 5.298835124541e+04 5.168554509804e+04 5.042514112495e+04 4.920543845837e+04 4.802482201919e+04 4.688175857059e+04 4.577479335738e+04 4.470254723032e+04 4.366371333280e+04 4.265705165925e+04 4.168137286100e+04 4.073548634709e+04 3.981802393828e+04 3.892685176366e+04 3.805712728778e+04 3.719219452679e+04 1.006484584693e+05 9.785587688117e+04 9.513893734564e+04 9.251849326940e+04 8.999338059338e+04 8.755976799916e+04 8.521351778053e+04 8.295064918818e+04 8.076740948906e+04 7.866026793793e+04 7.662589718103e+04 7.466115568944e+04 7.276307241491e+04 7.092883408281e+04 6.915577396859e+04 6.744136247662e+04 6.578319865596e+04 6.417900295456e+04 6.262661060203e+04 6.112396597862e+04 5.966911763517e+04 5.826021411750e+04 5.689550016844e+04 5.557331283040e+04 5.429207467474e+04 5.305027497810e+04 5.184640805910e+04 5.067876498496e+04 4.954473717376e+04 4.843851516817e+04 4.734030001883e+04 1.183599905476e+05 1.150682312600e+05 1.118720772561e+05 1.087904538046e+05 1.058211565628e+05 1.029595016926e+05 1.002005851741e+05 9.753971780479e+04 9.497248518958e+04 9.249473518647e+04 9.010255523970e+04 8.779225128672e+04 8.556032980092e+04 8.340348264021e+04 8.131857409739e+04 7.930262964491e+04 7.735282614353e+04 7.546648299012e+04 7.364105477278e+04 7.187412432183e+04 7.016339703898e+04 6.850669588002e+04 6.690195710161e+04 6.534722579504e+04 6.384064853213e+04 6.238045392918e+04 6.096488781482e+04 5.959199524495e+04 5.825888975979e+04 5.695933677200e+04 5.567241679538e+04 1.315300575959e+05 1.278598964135e+05 1.243063832078e+05 1.208817905770e+05 1.175823643374e+05 1.144026212523e+05 1.113370521791e+05 1.083804337905e+05 1.055278582562e+05 1.027747114505e+05 1.001166459277e+05 9.754955704657e+04 9.506956296584e+04 9.267298792547e+04 9.035634768898e+04 8.811633713230e+04 8.594981925570e+04 8.385381567337e+04 8.182549800833e+04 7.986218046966e+04 7.796131351340e+04 7.612047829545e+04 7.433738199430e+04 7.260985319329e+04 7.093583492174e+04 6.931336660389e+04 6.774052470290e+04 6.621522208970e+04 6.473453441050e+04 6.329246673936e+04 6.186947020736e+04 1.396546832895e+05 1.357396703581e+05 1.319640951527e+05 1.283278625096e+05 1.248250372411e+05 1.214493821958e+05 1.181949591962e+05 1.150562037774e+05 1.120279017073e+05 1.091051538516e+05 1.062833448064e+05 1.035581171450e+05 1.009253499426e+05 9.838114103341e+04 9.592179152904e+04 9.354379275773e+04 9.124381451054e+04 8.901869495613e+04 8.686543151557e+04 8.478117309097e+04 8.276321317666e+04 8.080898417844e+04 7.891605252798e+04 7.708211426020e+04 7.530498934165e+04 7.358260795520e+04 7.191296630142e+04 7.029397603852e+04 6.872295559726e+04 6.719493725606e+04 6.569470698104e+04 1.424244148261e+05 1.384052177968e+05 1.345510383940e+05 1.308425497795e+05 1.272708560303e+05 1.238289915603e+05 1.205107712059e+05 1.173104931508e+05 1.142228350608e+05 1.112428005305e+05 1.083656835452e+05 1.055870412753e+05 1.029026721356e+05 1.003085975040e+05 9.780104602752e+04 9.537644037006e+04 9.303138506463e+04 9.076265641700e+04 8.856719308598e+04 8.644208828945e+04 8.438458269104e+04 8.239205875417e+04 8.046203594792e+04 7.859216703982e+04 7.678023458180e+04 7.502414511992e+04 7.332191132642e+04 7.167158975725e+04 7.007106435951e+04 6.851731306170e+04 6.700293995477e+04 1.397366334488e+05 1.357547692114e+05 1.319679562066e+05 1.283292618537e+05 1.248258515461e+05 1.214500181680e+05 1.181955067778e+05 1.150566840944e+05 1.120283212165e+05 1.091055158751e+05 1.062836520677e+05 1.035583723256e+05 1.009255556827e+05 9.838130006841e+04 9.592190661272e+04 9.354386678597e+04 9.124385040966e+04 8.901869590752e+04 8.686540085548e+04 8.478111462535e+04 8.276313121541e+04 8.080888402286e+04 7.891594131226e+04 7.708200370933e+04 7.530490424082e+04 7.358261402899e+04 7.191326453214e+04 7.029521837376e+04 6.872729635282e+04 6.720949960704e+04 6.574638229255e+04 1.317002673467e+05 1.278911737315e+05 1.243143772391e+05 1.208846744819e+05 1.175840290188e+05 1.144039146891e+05 1.113381631853e+05 1.083814074719e+05 1.055287087095e+05 1.027754463311e+05 1.001172714104e+05 9.755007902467e+04 9.506998710669e+04 9.267331994163e+04 9.035659320882e+04 8.811650202520e+04 8.594990951755e+04 8.385383780224e+04 8.182545890375e+04 7.986208801486e+04 7.796117688764e+04 7.612030887748e+04 7.433719529592e+04 7.260967427624e+04 7.093571589802e+04 6.931344407425e+04 6.774121568608e+04 6.621788010083e+04 6.474363358744e+04 6.332280156709e+04 6.197697142188e+04 1.186331461299e+05 1.151182105641e+05 1.118849196826e+05 1.087950899150e+05 1.058237955176e+05 1.029615256221e+05 1.002023139184e+05 9.754123056074e+04 9.497380636815e+04 9.249587796674e+04 9.010353049782e+04 8.779306949522e+04 8.556100093059e+04 8.340401632921e+04 8.131897959532e+04 7.930291625950e+04 7.735300334475e+04 7.546656115110e+04 7.364104535109e+04 7.187404070264e+04 7.016325526033e+04 6.850651586556e+04 6.690176532064e+04 6.534706324180e+04 6.384059860741e+04 6.238073597547e+04 6.096617407505e+04 5.959646479216e+04 5.827372125822e+04 5.700823987138e+04 5.584538403488e+04 1.010533088097e+05 9.792940902886e+04 9.515833487793e+04 9.252577201760e+04 8.999747598400e+04 8.756277887572e+04 8.521601655666e+04 8.295281442693e+04 8.076930205579e+04 7.866191170748e+04 7.662730648250e+04 7.466234341906e+04 7.276405283029e+04 7.092962205500e+04 6.915638543117e+04 6.744181371715e+04 6.578350719555e+04 6.417918732027e+04 6.262669119170e+04 6.112396486111e+04 5.966905890109e+04 5.826012489477e+04 5.689541503074e+04 5.557328979867e+04 5.429224384673e+04 5.305098921545e+04 5.184871303872e+04 5.068592533032e+04 4.956730761434e+04 4.851136147392e+04 4.759754072053e+04 7.966902693600e+04 7.698964695204e+04 7.477964052548e+04 7.270446012596e+04 7.071540310386e+04 6.880080044827e+04 6.695583636679e+04 6.517696233615e+04 6.346100124118e+04 6.180502521281e+04 6.020632588263e+04 5.866238451380e+04 5.717084455351e+04 5.572948771364e+04 5.433621750956e+04 5.298904630060e+04 5.168608725187e+04 5.042554700405e+04 4.920572241898e+04 4.802499848916e+04 4.688184950933e+04 4.577484400991e+04 4.470265310890e+04 4.366406591722e+04 4.265801693362e+04 4.168367019149e+04 4.074073455573e+04 3.983070327502e+04 3.896147726893e+04 3.816375978794e+04 3.757121833751e+04 5.539092625590e+04 5.310621318530e+04 5.152587540041e+04 5.009416586103e+04 4.872577182905e+04 4.740547971449e+04 4.613115746509e+04 4.490201222203e+04 4.371675585870e+04 4.257366626755e+04 4.147084649269e+04 4.040639782805e+04 3.937850662501e+04 3.838547879293e+04 3.742574786362e+04 3.649787212161e+04 3.560052831147e+04 3.473250467642e+04 3.389269365743e+04 3.308008328631e+04 3.229374309543e+04 3.153279922905e+04 3.079639012100e+04 3.008359672486e+04 2.939336289637e+04 2.872451161994e+04 2.807628619642e+04 2.745088785620e+04 2.686275930074e+04 2.636935721050e+04 2.620793789422e+04 2.999240377075e+04 2.724855008096e+04 2.607189581761e+04 2.529236330021e+04 2.463548640984e+04 2.401977553097e+04 2.342176188354e+04 2.283585238103e+04 2.226178358595e+04 2.170059288905e+04 2.115335100252e+04 2.062081384869e+04 2.010337943941e+04 1.960113212177e+04 1.911390283947e+04 1.864131951126e+04 1.818284248812e+04 1.773778534198e+04 1.730532319842e+04 1.688449297032e+04 1.647419432598e+04 1.607320768456e+04 1.568026591712e+04 1.529426551515e+04 1.491482274564e+04 1.454368131369e+04 1.418825714016e+04 1.387065921674e+04 1.365108209437e+04 1.368969619422e+04 1.447604473159e+04 -2.065801804928e+03 7.659470842217e+02 1.243293854330e+03 1.175240844397e+03 9.839078164488e+02 7.905367774720e+02 6.264534261203e+02 4.956509720018e+02 3.943199928342e+02 3.171058957861e+02 2.590555931214e+02 2.161196731715e+02 1.851775078432e+02 1.639218452259e+02 1.507218270496e+02 1.445017967163e+02 1.446469204012e+02 1.509325609643e+02 1.634736849100e+02 1.826847488577e+02 2.092389554260e+02 2.440009853673e+02 2.878895505922e+02 3.415699490865e+02 4.047471198358e+02 4.745243274610e+02 5.414927445682e+02 5.801691092032e+02 5.248949840279e+02 2.073567052155e+02 -8.662082934187e+02 
        </DataArray>
        <DataArray type="Float64" Name="STRESS_YY" format="ascii">
          -2.853296004258e+05 -2.827005128138e+05 -2.801602005645e+05 -2.777068561295e+05 -2.753382445617e+05 -2.730518803865e+05 -2.708450299015e+05 -2.687148195483e+05 -2.666583285643e+05 -2.646726525911e+05 -2.627549440899e+05 -2.609024373692e+05 -2.591124623162e+05 -2.573824516788e+05 -2.557099428956e+05 -2.540925776275e+05 -2.525280981221e+05 -2.510143432177e+05 -2.495492423367e+05 -2.481308090202e+05 -2.467571335750e+05 -2.454263745655e+05 -2.441367494821e+05 -2.428865236684e+05 -2.416739976716e+05 -2.404974911012e+05 -2.393553216617e+05 -2.382457717239e+05 -2.371670233350e+05 -2.361169982988e+05 -2.350929958306e+05 -2.853297603148e+05 -2.827005410151e+05 -2.801601977448e+05 -2.777068424573e+05 -2.753382252715e+05 -2.730518574487e+05 -2.708450041340e+05 -2.687147914439e+05 -2.666582985603e+05 -2.646726208859e+05 -2.627549109298e+05 -2.609024028031e+05 -2.591124264856e+05 -2.573824146387e+05 -2.557099047476e+05 -2.540925383188e+05 -2.525280577105e+05 -2.510143017517e+05 -2.495491997561e+05 -2.481307653670e+05 -2.467570887360e+05 -2.454263285583e+05 -2.441367021814e+05 -2.428864750010e+05 -2.416739474263e+05 -2.404974390095e+05 -2.393552671352e+05 -2.382457133450e+05 -2.371669572036e+05 -2.361169120916e+05 -2.350928479096e+05 -2.853302556992e+05 -2.827006308041e+05 -2.801601921643e+05 -2.777068034377e+05 -2.753381692157e+05 -2.730517900290e+05 -2.708449280918e+05 -2.687147084005e+05 -2.666582096711e+05 -2.646725269568e+05 -2.627548124413e+05 -2.609023002116e+05 -2.591123200715e+05 -2.573823046514e+05 -2.557097912584e+05 -2.540924215006e+05 -2.525279376309e+05 -2.510141784091e+05 -2.495490731280e+05 -2.481306353684e+05 -2.467569553686e+05 -2.454261915682e+05 -2.441365613319e+05 -2.428863299182e+05 -2.416737976010e+05 -2.404972835131e+05 -2.393551041968e+05 -2.382455386585e+05 -2.371667585311e+05 -2.361166517250e+05 -2.350923975325e+05 -2.853311343174e+05 -2.827007973278e+05 -2.801601915649e+05 -2.777067446797e+05 -2.753380808895e+05 -2.730516821714e+05 -2.708448054566e+05 -2.687145739965e+05 -2.666580653562e+05 -2.646723741465e+05 -2.627546520843e+05 -2.609021330340e+05 -2.591121465856e+05 -2.573821251821e+05 -2.557096061488e+05 -2.540922308368e+05 -2.525277416078e+05 -2.510139769839e+05 -2.495488663202e+05 -2.481304230339e+05 -2.467567373434e+05 -2.454259675340e+05 -2.441363308383e+05 -2.428860923347e+05 -2.416735519280e+05 -2.404970282134e+05 -2.393548360922e+05 -2.382452502422e+05 -2.371664282633e+05 -2.361162133537e+05 -2.350916255828e+05 -2.853324831619e+05 -2.827010667181e+05 -2.801602087142e+05 -2.777066746238e+05 -2.753379672021e+05 -2.730515398384e+05 -2.708446418688e+05 -2.687143935182e+05 -2.666578709519e+05 -2.646721677961e+05 -2.627544353297e+05 -2.609019068889e+05 -2.591119118165e+05 -2.573818823261e+05 -2.557093556147e+05 -2.540919728269e+05 -2.525274762931e+05 -2.510137043641e+05 -2.495485864096e+05 -2.481301355928e+05 -2.467564420376e+05 -2.454256638923e+05 -2.441360182227e+05 -2.428857697120e+05 -2.416732177805e+05 -2.404966801596e+05 -2.393544693738e+05 -2.382448533648e+05 -2.371659686835e+05 -2.361155904223e+05 -2.350904970627e+05 -2.853344421786e+05 -2.827014784418e+05 -2.801602609332e+05 -2.777066041940e+05 -2.753378363523e+05 -2.730513702078e+05 -2.708444438691e+05 -2.687141734165e+05 -2.666576328643e+05 -2.646719146453e+05 -2.627541691987e+05 -2.609016292628e+05 -2.591116236903e+05 -2.573815844473e+05 -2.557090484541e+05 -2.540916568659e+05 -2.525271514850e+05 -2.510133708647e+05 -2.495482440093e+05 -2.481297840846e+05 -2.467560808586e+05 -2.454252923751e+05 -2.441356352929e+05 -2.428853739292e+05 -2.416728070304e+05 -2.404962508913e+05 -2.393540147540e+05 -2.382443569008e+05 -2.371653837611e+05 -2.361147725332e+05 -2.350889545690e+05 -2.853372315414e+05 -2.827020904880e+05 -2.801603710556e+05 -2.777065457880e+05 -2.753376969177e+05 -2.730511801901e+05 -2.708442176428e+05 -2.687139196761e+05 -2.666573574246e+05 -2.646716215572e+05 -2.627538612347e+05 -2.609013082976e+05 -2.591112912574e+05 -2.573812414742e+05 -2.557086955964e+05 -2.540912944037e+05 -2.525267797310e+05 -2.510129897140e+05 -2.495478532085e+05 -2.481293832181e+05 -2.467556691696e+05 -2.454248688132e+05 -2.441351983316e+05 -2.428849214935e+05 -2.416723360887e+05 -2.404957564300e+05 -2.393534871102e+05 -2.382437729106e+05 -2.371646776556e+05 -2.361137407866e+05 -2.350869032821e+05 -2.853412051166e+05 -2.827029911778e+05 -2.801605700028e+05 -2.777065137024e+05 -2.753375568248e+05 -2.730509746045e+05 -2.708439668802e+05 -2.687136358589e+05 -2.666570485187e+05 -2.646712929664e+05 -2.627535168585e+05 -2.609009507801e+05 -2.591109224394e+05 -2.573808625324e+05 -2.557083074055e+05 -2.540908973811e+05 -2.525263740052e+05 -2.510125751590e+05 -2.495474294295e+05 -2.481289494497e+05 -2.467552243269e+05 -2.454244113344e+05 -2.441347260509e+05 -2.428844314127e+05 -2.416718237905e+05 -2.404952148503e+05 -2.393529026406e+05 -2.382431127827e+05 -2.371638492021e+05 -2.361124561781e+05 -2.350841798346e+05 -2.853469567753e+05 -2.827043237115e+05 -2.801609038486e+05 -2.777065248919e+05 -2.753374217657e+05 -2.730507538730e+05 -2.708436893571e+05 -2.687133187052e+05 -2.666567029169e+05 -2.646709265465e+05 -2.627531348471e+05 -2.609005569001e+05 -2.591105190969e+05 -2.573804513120e+05 -2.557078893433e+05 -2.540904729338e+05 -2.525259433089e+05 -2.510121378355e+05 -2.495469848055e+05 -2.481284963422e+05 -2.467547611082e+05 -2.454239356226e+05 -2.441342347163e+05 -2.428839199665e+05 -2.416712859112e+05 -2.404946403240e+05 -2.393522718590e+05 -2.382423787359e+05 -2.371628788791e+05 -2.361108353712e+05 -2.350804893300e+05 -2.853555410644e+05 -2.827063349145e+05 -2.801614462148e+05 -2.777066008945e+05 -2.753372917733e+05 -2.730505076517e+05 -2.708433691139e+05 -2.687129495537e+05 -2.666563011265e+05 -2.646705032789e+05 -2.627526975898e+05 -2.609001108298e+05 -2.591100675799e+05 -2.573799965951e+05 -2.557074326921e+05 -2.540900148984e+05 -2.525254838277e+05 -2.510116762639e+05 -2.495465200199e+05 -2.481280264269e+05 -2.467542835278e+05 -2.454234466752e+05 -2.441337296559e+05 -2.428833921117e+05 -2.416707257271e+05 -2.404940325806e+05 -2.393515873920e+05 -2.382415480153e+05 -2.371617049974e+05 -2.361087030852e+05 -2.350752762449e+05 -2.853689715531e+05 -2.827094780041e+05 -2.801623225138e+05 -2.777067672092e+05 -2.753371507120e+05 -2.730501981013e+05 -2.708429568360e+05 -2.687124732679e+05 -2.666557857485e+05 -2.646699659328e+05 -2.627521494624e+05 -2.608995598108e+05 -2.591095186806e+05 -2.573794530931e+05 -2.557068962589e+05 -2.540894862250e+05 -2.525249626202e+05 -2.510111613409e+05 -2.495460093436e+05 -2.481275168862e+05 -2.467537709322e+05 -2.454229252858e+05 -2.441331918449e+05 -2.428828273403e+05 -2.416701189620e+05 -2.404933597236e+05 -2.393508028288e+05 -2.382405443720e+05 -2.371601781787e+05 -2.361056937027e+05 -2.350674383287e+05 -2.853914934677e+05 -2.827146567927e+05 -2.801637581680e+05 -2.777070483251e+05 -2.753369348265e+05 -2.730497143767e+05 -2.708423167764e+05 -2.687117421574e+05 -2.666550053731e+05 -2.646691636832e+05 -2.627513439470e+05 -2.608987634062e+05 -2.591087393545e+05 -2.573786958872e+05 -2.557061637929e+05 -2.540887792627e+05 -2.525242803484e+05 -2.510105015614e+05 -2.495453684195e+05 -2.481268895710e+05 -2.467531500084e+05 -2.454223012187e+05 -2.441325513655e+05 -2.428821522939e+05 -2.416693827171e+05 -2.404925209784e+05 -2.393497861697e+05 -2.382391764483e+05 -2.371579612189e+05 -2.361010163876e+05 -2.350546025635e+05 -2.854334287088e+05 -2.827239427441e+05 -2.801661752284e+05 -2.777074379076e+05 -2.753364535398e+05 -2.730487538295e+05 -2.708410785179e+05 -2.687103526264e+05 -2.666535467896e+05 -2.646676892005e+05 -2.627498875716e+05 -2.608973465842e+05 -2.591073754014e+05 -2.573773926192e+05 -2.557049248479e+05 -2.540876056387e+05 -2.525231701048e+05 -2.510094507571e+05 -2.495443700942e+05 -2.481259339878e+05 -2.467522228385e+05 -2.454213823963e+05 -2.441316130134e+05 -2.428811560137e+05 -2.416682773474e+05 -2.404912343915e+05 -2.393481968725e+05 -2.382369931781e+05 -2.371542746750e+05 -2.360927571242e+05 -2.350309671690e+05 -2.855253240189e+05 -2.827437402571e+05 -2.801704211017e+05 -2.777075188889e+05 -2.753349677504e+05 -2.730464073536e+05 -2.708381917479e+05 -2.687071485965e+05 -2.666501953795e+05 -2.646643143118e+05 -2.627465746821e+05 -2.608941512767e+05 -2.591043318335e+05 -2.573745195929e+05 -2.557022305049e+05 -2.540850901051e+05 -2.525208266546e+05 -2.510072657935e+05 -2.495423227941e+05 -2.481239946327e+05 -2.467503520809e+05 -2.454195303767e+05 -2.441297208942e+05 -2.428791592246e+05 -2.416661073874e+05 -2.404888045776e+05 -2.393453135169e+05 -2.382330144739e+05 -2.371469929866e+05 -2.360750144250e+05 -2.349795978068e+05 -2.857735672527e+05 -2.828066269362e+05 -2.801837910228e+05 -2.777058392784e+05 -2.753283375372e+05 -2.730378875998e+05 -2.708288078183e+05 -2.686973346966e+05 -2.666402034814e+05 -2.646543247580e+05 -2.627367257585e+05 -2.608845477303e+05 -2.590950502401e+05 -2.573656124628e+05 -2.556937312591e+05 -2.540770158290e+05 -2.525131821003e+05 -2.510000451182e+05 -2.495355120196e+05 -2.481175737951e+05 -2.467442963664e+05 -2.454138114841e+05 -2.441243020738e+05 -2.428739781736e+05 -2.416610160316e+05 -2.404834042765e+05 -2.393385164648e+05 -2.382219271281e+05 -2.371241034525e+05 -2.360211395941e+05 -2.348431318554e+05 -2.868295111200e+05 -2.832122837631e+05 -2.803354735876e+05 -2.777432938434e+05 -2.753102015099e+05 -2.729909132501e+05 -2.707661851268e+05 -2.686260458243e+05 -2.665641848826e+05 -2.645759135480e+05 -2.626573630439e+05 -2.608051397904e+05 -2.590161661961e+05 -2.572875965452e+05 -2.556167707633e+05 -2.540011817164e+05 -2.524384525417e+05 -2.509263176900e+05 -2.494626028961e+05 -2.480452031996e+05 -2.466720520029e+05 -2.453410753138e+05 -2.440501085681e+05 -2.427967430167e+05 -2.415780178718e+05 -2.403897735089e+05 -2.392252225900e+05 -2.380716532394e+05 -2.369024984725e+05 -2.356575315746e+05 -2.341784679094e+05 -2.790976742609e+05 -2.791281695442e+05 -2.783630847316e+05 -2.769885325885e+05 -2.752959730506e+05 -2.734407381597e+05 -2.715105730327e+05 -2.695571694157e+05 -2.676117952372e+05 -2.656935941202e+05 -2.638142648143e+05 -2.619808258807e+05 -2.601973187325e+05 -2.584658976085e+05 -2.567875399259e+05 -2.551625359765e+05 -2.535908370006e+05 -2.520723214257e+05 -2.506070224877e+05 -2.491953541823e+05 -2.478383600805e+05 -2.465380342433e+05 -2.452977797166e+05 -2.441231091456e+05 -2.430228184767e+05 -2.420110540479e+05 -2.411112414189e+05 -2.403640178581e+05 -2.398442459678e+05 -2.396995468231e+05 -2.401846346847e+05 
        </DataArray>
        <DataArray type="Float64" Name="STRESS_ZZ" format="ascii">
          -2.858710751140e+05 -2.832214796086e+05 -2.806678687089e+05 -2.782021883833e+05 -2.758213808224e+05 -2.735229143882e+05 -2.713041280039e+05 -2.691622155453e+05 -2.670943021338e+05 -2.650975109737e+05 -2.631690090999e+05 -2.613060366757e+05 -2.595059237448e+05 -2.577660996368e+05 -2.560840963209e+05 -2.544575489883e+05 -2.528841931580e+05 -2.513618614076e+05 -2.498884778461e+05 -2.484620521847e+05 -2.470806729822e+05 -2.457424997114e+05 -2.444457541536e+05 -2.431887099751e+05 -2.419696802356e+05 -2.407869991639e+05 -2.396389908395e+05 -2.385238970537e+05 -2.374396788991e+05 -2.363834117867e+05 -2.353489992443e+05 -2.831385700875e+05 -2.805628748242e+05 -2.780827436495e+05 -2.756881871932e+05 -2.733759716123e+05 -2.711436247058e+05 -2.689885876093e+05 -2.669081599996e+05 -2.648995684153e+05 -2.629600316570e+05 -2.610868071505e+05 -2.592772202034e+05 -2.575286816791e+05 -2.558386972617e+05 -2.542048714105e+05 -2.526249078918e+05 -2.510966075914e+05 -2.496178650022e+05 -2.481866629417e+05 -2.468010670986e+05 -2.454592188858e+05 -2.441593282190e+05 -2.428996644903e+05 -2.416785466887e+05 -2.404943309370e+05 -2.393453936168e+05 -2.382301033883e+05 -2.371467610151e+05 -2.360934406050e+05 -2.350675147232e+05 -2.340639833680e+05 -2.750460784018e+05 -2.726892348183e+05 -2.704267163526e+05 -2.682427968814e+05 -2.661337207046e+05 -2.640971907572e+05 -2.621309514082e+05 -2.602326154790e+05 -2.583997095576e+05 -2.566297358275e+05 -2.549202190363e+05 -2.532687371708e+05 -2.516729399457e+05 -2.501305594326e+05 -2.486394144782e+05 -2.471974124702e+05 -2.458025474171e+05 -2.444528971841e+05 -2.431466187539e+05 -2.418819431633e+05 -2.406571689846e+05 -2.394706548977e+05 -2.383208115977e+05 -2.372060920896e+05 -2.361249803256e+05 -2.350759772833e+05 -2.340575836657e+05 -2.330682748809e+05 -2.321064593737e+05 -2.311703898739e+05 -2.302583130729e+05 -2.619046301579e+05 -2.599031530864e+05 -2.579940101723e+05 -2.561521431387e+05 -2.543729454260e+05 -2.526544038559e+05 -2.509947547980e+05 -2.493921196168e+05 -2.478445117302e+05 -2.463498935666e+05 -2.449062240002e+05 -2.435114912148e+05 -2.421637328484e+05 -2.408610483517e+05 -2.396016051104e+05 -2.383836407694e+05 -2.372054631581e+05 -2.360654477960e+05 -2.349620346439e+05 -2.338937231733e+05 -2.328590669309e+05 -2.318566664792e+05 -2.308851618751e+05 -2.299432237171e+05 -2.290295433293e+05 -2.281428242597e+05 -2.272817813818e+05 -2.264451735649e+05 -2.256319515416e+05 -2.248417963588e+05 -2.240782261914e+05 -2.442193143001e+05 -2.426960139039e+05 -2.412624165152e+05 -2.398808669339e+05 -2.385456071393e+05 -2.372550038898e+05 -2.360079551527e+05 -2.348032660067e+05 -2.336396051366e+05 -2.325155538888e+05 -2.314296554116e+05 -2.303804496664e+05 -2.293664964633e+05 -2.283863896530e+05 -2.274387653717e+05 -2.265223059378e+05 -2.256357413852e+05 -2.247778478962e+05 -2.239474461121e+05 -2.231433968097e+05 -2.223645966216e+05 -2.216099715886e+05 -2.208784704784e+05 -2.201690565695e+05 -2.194807002970e+05 -2.188123775279e+05 -2.181630913499e+05 -2.175319813974e+05 -2.169187273229e+05 -2.163249293721e+05 -2.157611982005e+05 -2.226698774499e+05 -2.217291111279e+05 -2.208749338501e+05 -2.200542691720e+05 -2.192599424228e+05 -2.184907802087e+05 -2.177464851334e+05 -2.170266947810e+05 -2.163308755342e+05 -2.156583628934e+05 -2.150084115453e+05 -2.143802337046e+05 -2.137730251892e+05 -2.131859823610e+05 -2.126183124174e+05 -2.120692396968e+05 -2.115380081267e+05 -2.110238826163e+05 -2.105261472693e+05 -2.100441033750e+05 -2.095770653362e+05 -2.091243559066e+05 -2.086852997395e+05 -2.082592168433e+05 -2.078454176559e+05 -2.074432094007e+05 -2.070519460596e+05 -2.066712302736e+05 -2.063016277420e+05 -2.059470719726e+05 -2.056268120529e+05 -1.980846260481e+05 -1.978082440602e+05 -1.976150624811e+05 -1.974342824759e+05 -1.972570896611e+05 -1.970828291595e+05 -1.969121190780e+05 -1.967455455024e+05 -1.965834843026e+05 -1.964261305843e+05 -1.962735504694e+05 -1.961257227947e+05 -1.959825691527e+05 -1.958439728673e+05 -1.957097927064e+05 -1.955798709762e+05 -1.954540386111e+05 -1.953321173118e+05 -1.952139202628e+05 -1.950992511104e+05 -1.949879010130e+05 -1.948796450665e+05 -1.947742367011e+05 -1.946714027579e+05 -1.945708412757e+05 -1.944722372682e+05 -1.943753440295e+05 -1.942802910014e+05 -1.941886504589e+05 -1.941070090278e+05 -1.940644641045e+05 -1.714086463632e+05 -1.718527725248e+05 -1.723767067945e+05 -1.728901978869e+05 -1.733826111039e+05 -1.738538436518e+05 -1.743055031663e+05 -1.747392025132e+05 -1.751563029624e+05 -1.755579311676e+05 -1.759450333735e+05 -1.763184197912e+05 -1.766787989268e+05 -1.770267993924e+05 -1.773629869276e+05 -1.776878743320e+05 -1.780019290272e+05 -1.783055770531e+05 -1.785992056053e+05 -1.788831631547e+05 -1.791577582102e+05 -1.794232564082e+05 -1.796798763394e+05 -1.799277858941e+05 -1.801671032130e+05 -1.803979226096e+05 -1.806204294112e+05 -1.808353214274e+05 -1.810452566082e+05 -1.812596835001e+05 -1.815183743290e+05 -1.436675823132e+05 -1.448603267289e+05 -1.461298453535e+05 -1.473652712913e+05 -1.485540055523e+05 -1.496965009745e+05 -1.507953871974e+05 -1.518533411256e+05 -1.528727459086e+05 -1.538556957203e+05 -1.548040504585e+05 -1.557194846130e+05 -1.566035241025e+05 -1.574575725580e+05 -1.582829304531e+05 -1.590808076624e+05 -1.598523334712e+05 -1.605985622087e+05 -1.613204778509e+05 -1.620189953073e+05 -1.626949608267e+05 -1.633491498916e+05 -1.639822647676e+05 -1.645949310427e+05 -1.651877034374e+05 -1.657611003529e+05 -1.663157543423e+05 -1.668529490552e+05 -1.673764596420e+05 -1.678986816741e+05 -1.684704691836e+05 -1.159284062553e+05 -1.178685392385e+05 -1.198832924823e+05 -1.218404968155e+05 -1.237254619018e+05 -1.255391642046e+05 -1.272852413251e+05 -1.289674279582e+05 -1.305891242552e+05 -1.321533893502e+05 -1.336629943904e+05 -1.351204767788e+05 -1.365281787358e+05 -1.378882784583e+05 -1.392028103940e+05 -1.404736813017e+05 -1.417026817460e+05 -1.428914942639e+05 -1.440416992662e+05 -1.451547776606e+05 -1.462321132243e+05 -1.472749905920e+05 -1.482845951769e+05 -1.492620094476e+05 -1.502082231327e+05 -1.511241765853e+05 -1.520109456968e+05 -1.528703911592e+05 -1.537073837307e+05 -1.545372123394e+05 -1.554217777232e+05 -8.925882017172e+04 -9.191531022020e+04 -9.464600063071e+04 -9.729694678824e+04 -9.985121297396e+04 -1.023102167272e+05 -1.046785404715e+05 -1.069609230709e+05 -1.091617345842e+05 -1.112849569656e+05 -1.133342330549e+05 -1.153129278677e+05 -1.172241667569e+05 -1.190708711529e+05 -1.208557802266e+05 -1.225814702670e+05 -1.242503671576e+05 -1.258647567737e+05 -1.274267925877e+05 -1.289384991843e+05 -1.304017765297e+05 -1.318183980135e+05 -1.331900121125e+05 -1.345181387929e+05 -1.358041835415e+05 -1.370494887473e+05 -1.382555501251e+05 -1.394247682936e+05 -1.405630243645e+05 -1.416882808298e+05 -1.428730012116e+05 -6.468726814792e+04 -6.799926903876e+04 -7.138844552952e+04 -7.467815411371e+04 -7.784890685801e+04 -8.090240290889e+04 -8.384404651105e+04 -8.667947452389e+04 -8.941393656086e+04 -9.205225365468e+04 -9.459886692414e+04 -9.705789780779e+04 -9.943319002385e+04 -1.017283473289e+05 -1.039467567915e+05 -1.060916098483e+05 -1.081659171092e+05 -1.101725195781e+05 -1.121140978851e+05 -1.139931764812e+05 -1.158121289434e+05 -1.175731772994e+05 -1.192783927876e+05 -1.209296960994e+05 -1.225288718145e+05 -1.240776303575e+05 -1.255778440605e+05 -1.270323766063e+05 -1.284479350038e+05 -1.298447109144e+05 -1.313048211503e+05 -4.316660401119e+04 -4.704251065410e+04 -5.100577203901e+04 -5.485403784493e+04 -5.856440907481e+04 -6.213852787388e+04 -6.558239606077e+04 -6.890237423156e+04 -7.210444886847e+04 -7.519415741318e+04 -7.817662867185e+04 -8.105663853205e+04 -8.383865451760e+04 -8.652687280666e+04 -8.912524414648e+04 -9.163749616142e+04 -9.406714821412e+04 -9.641752498327e+04 -9.869176461421e+04 -1.008928261620e+05 -1.030234932940e+05 -1.050863776280e+05 -1.070839207314e+05 -1.090183969826e+05 -1.108919295981e+05 -1.127065462913e+05 -1.144644067505e+05 -1.161686427980e+05 -1.178263912793e+05 -1.194593527065e+05 -1.211580812253e+05 -2.554842005064e+04 -2.986017039782e+04 -3.428558308625e+04 -3.858815684403e+04 -4.273921326328e+04 -4.673942466941e+04 -5.059484148126e+04 -5.431215842642e+04 -5.789781913008e+04 -6.135787346099e+04 -6.469798008697e+04 -6.792343794394e+04 -7.103921886224e+04 -7.404999922570e+04 -7.696018534380e+04 -7.977393688382e+04 -8.249518311560e+04 -8.512763928212e+04 -8.767481814508e+04 -9.014003911840e+04 -9.252643591635e+04 -9.483695858363e+04 -9.707437183683e+04 -9.924124197908e+04 -1.013399188899e+05 -1.033725380627e+05 -1.053411832366e+05 -1.072487281790e+05 -1.091021607360e+05 -1.109242473623e+05 -1.128124100079e+05 -1.257959544320e+04 -1.715690735380e+04 -2.189969148366e+04 -2.652259520201e+04 -3.098901230777e+04 -3.529793995022e+04 -3.945458711826e+04 -4.346492745076e+04 -4.733486638045e+04 -5.107016010900e+04 -5.467640486229e+04 -5.815901598746e+04 -6.152320525587e+04 -6.477396421895e+04 -6.791605541050e+04 -7.095400776953e+04 -7.389211763218e+04 -7.673444784330e+04 -7.948482624033e+04 -8.214683754188e+04 -8.472380637139e+04 -8.721877134045e+04 -8.963444325189e+04 -9.197315931688e+04 -9.423684628097e+04 -9.642708288355e+04 -9.854548526872e+04 -1.005950910366e+05 -1.025846034059e+05 -1.045406791049e+05 -1.065607928234e+05 -4.542585075080e+03 -9.550239828273e+03 -1.456145849206e+04 -1.938328270870e+04 -2.401313053895e+04 -2.846836019416e+04 -3.276412517600e+04 -3.691139097427e+04 -4.091818044721e+04 -4.479077209920e+04 -4.853446149840e+04 -5.215398199155e+04 -5.565372766471e+04 -5.903785773478e+04 -6.231034583357e+04 -6.547499199654e+04 -6.853542411327e+04 -7.149509533911e+04 -7.435728069589e+04 -7.712508351946e+04 -7.980145562087e+04 -8.238924960567e+04 -8.489131636459e+04 -8.731069625581e+04 -8.965097635623e+04 -9.191696174122e+04 -9.411594244442e+04 -9.626011860489e+04 -9.837130641096e+04 -1.004901798016e+05 -1.027051811011e+05 -5.784680129598e+03 -4.325433114857e+03 -8.658700888964e+03 -1.397250307023e+04 -1.932872431702e+04 -2.447427820556e+04 -2.935731073466e+04 -3.398493722691e+04 -3.837952295977e+04 -4.256509295074e+04 -4.656339896653e+04 -5.039314338263e+04 -5.407020477919e+04 -5.760813971147e+04 -6.101868195390e+04 -6.431219759991e+04 -6.749805947823e+04 -7.058494982039e+04 -7.358110359867e+04 -7.649449712513e+04 -7.933295487705e+04 -8.210414388713e+04 -8.481535842367e+04 -8.747284699458e+04 -9.008017606756e+04 -9.263432073295e+04 -9.511638331170e+04 -9.746896786839e+04 -9.953940377647e+04 -1.009330536217e+05 -1.003549310525e+05 
        </DataArray>
        <DataArray type="Float64" Name="STRAIN_XX" format="ascii">
          1.591040243202e-06 1.533256781996e-06 1.477773496851e-06 1.424393851026e-06 1.372996307250e-06 1.323477830627e-06 1.275746025630e-06 1.229716237347e-06 1.185310047994e-06 1.142454311020e-06 1.101080465670e-06 1.061124017151e-06 1.022524136712e-06 9.852233363852e-07 9.491672090839e-07 9.143042038082e-07 8.805854436302e-07 8.479645620132e-07 8.163975687436e-07 7.858427331446e-07 7.562604874067e-07 7.276133505477e-07 6.998658708284e-07 6.729845916978e-07 6.469380344039e-07 6.216966953560e-07 5.972330054179e-07 5.735211067245e-07 5.505359158591e-07 5.282497480522e-07 5.066143722935e-07 1.561526044578e-06 1.504542700990e-06 1.449853493404e-06 1.397242167948e-06 1.346585515077e-06 1.297781192221e-06 1.250737927607e-06 1.205372214751e-06 1.161606732110e-06 1.119369370301e-06 1.078592543772e-06 1.039212681209e-06 1.001169824805e-06 9.644073129171e-07 9.288715203805e-07 8.945116398591e-07 8.612794981222e-07 8.291293974736e-07 7.980179838981e-07 7.679041291883e-07 7.387488394362e-07 7.105151757849e-07 6.831682035200e-07 6.566749544553e-07 6.310044175440e-07 6.061275451587e-07 5.820172546513e-07 5.586483370572e-07 5.359969639973e-07 5.140387782618e-07 4.927377878962e-07 1.474117453417e-06 1.419503856141e-06 1.367166394102e-06 1.316830512915e-06 1.268368062746e-06 1.221678761350e-06 1.176674660601e-06 1.133275656210e-06 1.091407675931e-06 1.051001677717e-06 1.011992969463e-06 9.743207091192e-07 9.379275219093e-07 9.027591916405e-07 8.687644119719e-07 8.358945725306e-07 8.041035878084e-07 7.733477418023e-07 7.435855617871e-07 7.147777064718e-07 6.868868774277e-07 6.598777474688e-07 6.337169074730e-07 6.083728391946e-07 5.838159143805e-07 5.600184381242e-07 5.369547664343e-07 5.146016131382e-07 4.929388725925e-07 4.719520483420e-07 4.516414428058e-07 1.332172854916e-06 1.281408019619e-06 1.232889698746e-06 1.186248972320e-06 1.141349731799e-06 1.098095051716e-06 1.056402385938e-06 1.016197153486e-06 9.774105619660e-07 9.399785484611e-07 9.038411185610e-07 8.689418645629e-07 8.352276053268e-07 8.026480959007e-07 7.711557935869e-07 7.407056597315e-07 7.112549957179e-07 6.827633047994e-07 6.551921689721e-07 6.285051491495e-07 6.026677008642e-07 5.776471121783e-07 5.534124535017e-07 5.299345598652e-07 5.071860492463e-07 4.851414229310e-07 4.637773753527e-07 4.430737436145e-07 4.230164774411e-07 4.036071294128e-07 3.849050965221e-07 1.141145863124e-06 1.095561735211e-06 1.052183373644e-06 1.010515572430e-06 9.704116457938e-07 9.317792219102e-07 8.945430256418e-07 8.586359149039e-07 8.239962007724e-07 7.905665238322e-07 7.582932082716e-07 7.271258158856e-07 6.970168096097e-07 6.679212883100e-07 6.397967740913e-07 6.126030346273e-07 5.863019314606e-07 5.608572981732e-07 5.362348275865e-07 5.124019875684e-07 4.893279406214e-07 4.669834924713e-07 4.453410506650e-07 4.243746185830e-07 4.040598371242e-07 3.843741624159e-07 3.652974379093e-07 3.468137103524e-07 3.289170986004e-07 3.116308341549e-07 2.950941956497e-07 9.083755713841e-07 8.691063600643e-07 8.319915607765e-07 7.963834471253e-07 7.621227094280e-07 7.291225804195e-07 6.973166622916e-07 6.666468787464e-07 6.370601971071e-07 6.085074260461e-07 5.809425907755e-07 5.543225250620e-07 5.286065701493e-07 5.037563366183e-07 4.797355192321e-07 4.565097389244e-07 4.340464175499e-07 4.123146625487e-07 3.912851791742e-07 3.709301924699e-07 3.512233837005e-07 3.321398448793e-07 3.136560508791e-07 2.957498643985e-07 2.784006102210e-07 2.615893469377e-07 2.452997572405e-07 2.295210281273e-07 2.142572725116e-07 1.995582910625e-07 1.856613800952e-07 6.428042448506e-07 6.107435945803e-07 5.807757257000e-07 5.520813356660e-07 5.244871777224e-07 4.979129824774e-07 4.723025088859e-07 4.476080268022e-07 4.237863810869e-07 4.007976987547e-07 3.786047936567e-07 3.571727966772e-07 3.364688938659e-07 3.164621267823e-07 2.971232321859e-07 2.784245122013e-07 2.603397273427e-07 2.428440064156e-07 2.259137713775e-07 2.095266756397e-07 1.936615559375e-07 1.782983950660e-07 1.634183077543e-07 1.490035605852e-07 1.350376813165e-07 1.215058414565e-07 1.083961067928e-07 9.570354891569e-08 8.344375442243e-08 7.169710668419e-08 6.081394861328e-08 3.546331836806e-07 3.304010173589e-07 3.081894978192e-07 2.869973664957e-07 2.666370606291e-07 2.470355424162e-07 2.281476290283e-07 2.099368280114e-07 1.923707063791e-07 1.754195023369e-07 1.590555648444e-07 1.432530284518e-07 1.279875936043e-07 1.132363639081e-07 9.897771708949e-08 8.519120538466e-08 7.185746876298e-08 5.895816763236e-08 4.647592829942e-08 3.439429533890e-08 2.269769888215e-08 1.137142868590e-08 4.016347054636e-10 -1.022463763076e-08 -2.051929819099e-08 -3.049271163529e-08 -4.015204680616e-08 -4.949581563741e-08 -5.849585887625e-08 -6.703814376024e-08 -7.464754352175e-08 5.492967742113e-08 3.885039592733e-08 2.470764652129e-08 1.131826526598e-08 -1.518831171741e-09 -1.386884886172e-08 -2.576540212528e-08 -3.723327895618e-08 -4.829376075473e-08 -5.896608984242e-08 -6.926800189075e-08 -7.921599826392e-08 -8.882552428493e-08 -9.811109004071e-08 -1.070863720509e-07 -1.157642784025e-07 -1.241570149456e-07 -1.322761258277e-07 -1.401325339930e-07 -1.477365675126e-07 -1.550979801881e-07 -1.622259612936e-07 -1.691291230360e-07 -1.758154512073e-07 -1.822921082808e-07 -1.885648144454e-07 -1.946357654295e-07 -2.004967479075e-07 -2.061063176302e-07 -2.113146531779e-07 -2.155131545331e-07 -2.448005290974e-07 -2.527067216883e-07 -2.587765874292e-07 -2.643621869720e-07 -2.696757251382e-07 -2.747740527724e-07 -2.796790972763e-07 -2.844039117456e-07 -2.889586229516e-07 -2.933519503676e-07 -2.975917146714e-07 -3.016850516291e-07 -3.056385543056e-07 -3.094583453331e-07 -3.131501549662e-07 -3.167193509680e-07 -3.201709854998e-07 -3.235098067920e-07 -3.267402871341e-07 -3.298666263835e-07 -3.328927611775e-07 -3.358223592218e-07 -3.386587949153e-07 -3.414050832652e-07 -3.440636378361e-07 -3.466355275674e-07 -3.491179470433e-07 -3.514958634828e-07 -3.537141889171e-07 -3.555859373128e-07 -3.563623882366e-07 -5.330604714297e-07 -5.330704937303e-07 -5.313704297562e-07 -5.294504040801e-07 -5.275289610012e-07 -5.256540042444e-07 -5.238360241561e-07 -5.220767343344e-07 -5.203755187437e-07 -5.187309755845e-07 -5.171413923371e-07 -5.156049005457e-07 -5.141195779458e-07 -5.126834857696e-07 -5.112947113495e-07 -5.099513722781e-07 -5.086516399906e-07 -5.073937293555e-07 -5.061759069937e-07 -5.049964801803e-07 -5.038537899068e-07 -5.027461953314e-07 -5.016720335728e-07 -5.006295398054e-07 -4.996165568546e-07 -4.986296603217e-07 -4.976611806665e-07 -4.966893560971e-07 -4.956453828550e-07 -4.943040633333e-07 -4.917692879727e-07 -7.988165035696e-07 -7.914754034092e-07 -7.826008029188e-07 -7.737604357328e-07 -7.651701511936e-07 -7.568680233284e-07 -7.488536974005e-07 -7.411183411377e-07 -7.336513798504e-07 -7.264420604094e-07 -7.194798716273e-07 -7.127546504397e-07 -7.062566282714e-07 -6.999764391604e-07 -6.939051252468e-07 -6.880341239870e-07 -6.823552608436e-07 -6.768607283647e-07 -6.715430721314e-07 -6.663951698186e-07 -6.614102093173e-07 -6.565816597016e-07 -6.519032195020e-07 -6.473687028166e-07 -6.429717031112e-07 -6.387045773289e-07 -6.345550726317e-07 -6.304950203766e-07 -6.264420465369e-07 -6.221307481865e-07 -6.165027801038e-07 -1.031960960679e-06 -1.018009274569e-06 -1.002817616313e-06 -9.879065179353e-07 -9.734692118537e-07 -9.595321322312e-07 -9.460854165237e-07 -9.331111114831e-07 -9.205898396554e-07 -9.085025231298e-07 -8.968308263593e-07 -8.855572561217e-07 -8.746651390261e-07 -8.641385999974e-07 -8.539625115243e-07 -8.441224703427e-07 -8.346047518574e-07 -8.253962878209e-07 -8.164846243345e-07 -8.078578905012e-07 -7.995047521781e-07 -7.914143537989e-07 -7.835762372871e-07 -7.759801951755e-07 -7.686159451999e-07 -7.614721101949e-07 -7.545326674376e-07 -7.477641261847e-07 -7.410702648141e-07 -7.341369362552e-07 -7.257028566143e-07 -1.223861511419e-06 -1.204016302282e-06 -1.183556552323e-06 -1.163659393588e-06 -1.144429034360e-06 -1.125868390232e-06 -1.107960384934e-06 -1.090682148727e-06 -1.074008730100e-06 -1.057914826299e-06 -1.042375700182e-06 -1.027367624274e-06 -1.012868031278e-06 -9.988555264435e-07 -9.853098252405e-07 -9.722116783871e-07 -9.595427800157e-07 -9.472856891876e-07 -9.354237439223e-07 -9.239409888224e-07 -9.128221134588e-07 -9.020524197768e-07 -8.916178482458e-07 -8.815050571061e-07 -8.717014481500e-07 -8.621944145487e-07 -8.529671001439e-07 -8.439811750369e-07 -8.351159344965e-07 -8.259675139187e-07 -8.149696667143e-07 -1.368596072355e-06 -1.342689155038e-06 -1.317804024318e-06 -1.294118033381e-06 -1.271376589178e-06 -1.249447910202e-06 -1.228271962478e-06 -1.207817112450e-06 -1.188060036970e-06 -1.168978420282e-06 -1.150549037482e-06 -1.132747743268e-06 -1.115549968671e-06 -1.098931233474e-06 -1.082867549174e-06 -1.067335700007e-06 -1.052313435228e-06 -1.037779613066e-06 -1.023714333137e-06 -1.010099081653e-06 -9.969169153900e-07 -9.841526755545e-07 -9.717931659000e-07 -9.598270471445e-07 -9.482437396061e-07 -9.370293754817e-07 -9.261545386476e-07 -9.155397400590e-07 -9.049608566093e-07 -8.937924376447e-07 -8.800616362020e-07 -1.464398631779e-06 -1.432925794245e-06 -1.402938165373e-06 -1.375173657019e-06 -1.349201761904e-06 -1.324636419068e-06 -1.301216156568e-06 -1.278772192410e-06 -1.257193743879e-06 -1.236404842666e-06 -1.216350387798e-06 -1.196987972063e-06 -1.178283089083e-06 -1.160206293242e-06 -1.142731483971e-06 -1.125834835740e-06 -1.109494084256e-06 -1.093687984694e-06 -1.078395813168e-06 -1.063596790663e-06 -1.049269294700e-06 -1.035389663360e-06 -1.021930272063e-06 -1.008856324896e-06 -9.961203320370e-07 -9.836523509790e-07 -9.713422691707e-07 -9.590068429102e-07 -9.463269498249e-07 -9.327257880899e-07 -9.170296278470e-07 -1.437451795501e-06 -1.440108547329e-06 -1.423517720280e-06 -1.401315030915e-06 -1.377445949880e-06 -1.353361611300e-06 -1.329639723040e-06 -1.306519684511e-06 -1.284097373569e-06 -1.262403182312e-06 -1.241436130941e-06 -1.221179899810e-06 -1.201610821105e-06 -1.182702031041e-06 -1.164425711154e-06 -1.146754332979e-06 -1.129661407381e-06 -1.113122017918e-06 -1.097113327003e-06 -1.081615234842e-06 -1.066611398731e-06 -1.052090965726e-06 -1.038051653820e-06 -1.024505470855e-06 -1.011489806466e-06 -9.990900329742e-07 -9.874880374992e-07 -9.770719684085e-07 -9.686966922797e-07 -9.643288693513e-07 -9.691944302213e-07 
        </DataArray>
        <DataArray type="Float64" Name="STRAIN_XY" format="ascii">
          5.290250617650e-09 3.552982446215e-09 2.569644145831e-09 1.923584605177e-09 1.481982994981e-09 1.174640551058e-09 9.581469610134e-10 8.038653099433e-10 6.924186264677e-10 6.105371317097e-10 5.490499108324e-10 5.015521141580e-10 4.635035608791e-10 4.316045595126e-10 4.033634855097e-10 3.767835799848e-10 3.501284275737e-10 3.217368222701e-10 2.898585036520e-10 2.525029792790e-10 2.072735354748e-10 1.511886428741e-10 8.046427347561e-11 -9.745018233293e-12 -1.256521957540e-10 -2.751608482928e-10 -4.680715717736e-10 -7.156479811326e-10 -1.027794223829e-09 -1.402017532400e-09 -1.770057539151e-09 5.997355562685e-07 5.831511505522e-07 5.669696337935e-07 5.513555104721e-07 5.363078627239e-07 5.218051469212e-07 5.078229823535e-07 4.943377049334e-07 4.813269641736e-07 4.687697193194e-07 4.566461427943e-07 4.449375118240e-07 4.336261212453e-07 4.226952048348e-07 4.121288705630e-07 4.019120437785e-07 3.920304162209e-07 3.824704030168e-07 3.732191030867e-07 3.642642661583e-07 3.555942628736e-07 3.471980588112e-07 3.390651915217e-07 3.311857485576e-07 3.235503173922e-07 3.161498605309e-07 3.089752854931e-07 3.020160168495e-07 2.952552048968e-07 2.886539382602e-07 2.820772472126e-07 1.176449532923e-06 1.143897137353e-06 1.112152371470e-06 1.081523363666e-06 1.052006133623e-06 1.023557953801e-06 9.961308991674e-07 9.696785313775e-07 9.441570018351e-07 9.195250387975e-07 8.957437469487e-07 8.727764024507e-07 8.505882748179e-07 8.291464748667e-07 8.084198306851e-07 7.883787721957e-07 7.689952321365e-07 7.502425623323e-07 7.320954577609e-07 7.145298887285e-07 6.975230417069e-07 6.810532726065e-07 6.651000621385e-07 6.496439635450e-07 6.346665192258e-07 6.201500130205e-07 6.060766554590e-07 5.924258406086e-07 5.791649896054e-07 5.662193279782e-07 5.533302489561e-07 1.708006052186e-06 1.660693969430e-06 1.614598585807e-06 1.570130106447e-06 1.527277196709e-06 1.485976636754e-06 1.446158592916e-06 1.407755592337e-06 1.370703965066e-06 1.334943793202e-06 1.300418608687e-06 1.267075096177e-06 1.234862834503e-06 1.203734079448e-06 1.173643573367e-06 1.144548386901e-06 1.116407774118e-06 1.089183048299e-06 1.062837470701e-06 1.037336155615e-06 1.012645985125e-06 9.887355365193e-07 9.655750201749e-07 9.431362079884e-07 9.213923158399e-07 9.003176537976e-07 8.798865050972e-07 8.600693170669e-07 8.408199980950e-07 8.220339494160e-07 8.033514017787e-07 2.174006702937e-06 2.113686940633e-06 2.055001046666e-06 1.998399454619e-06 1.943857020817e-06 1.891290988782e-06 1.840611984059e-06 1.791734022465e-06 1.744576044964e-06 1.699061787459e-06 1.655119379110e-06 1.612680962892e-06 1.571682364162e-06 1.532062816189e-06 1.493764717722e-06 1.456733429495e-06 1.420917090969e-06 1.386266463819e-06 1.352734789004e-06 1.320277665138e-06 1.288852940920e-06 1.258420624938e-06 1.228942803638e-06 1.200383557137e-06 1.172708812974e-06 1.145885939527e-06 1.119882414077e-06 1.094661323675e-06 1.070166322953e-06 1.046271927632e-06 1.022550480407e-06 2.556575795829e-06 2.485473795216e-06 2.416436868731e-06 2.349873802179e-06 2.285736981757e-06 2.223925236561e-06 2.164332639760e-06 2.106857904584e-06 2.051405680095e-06 1.997886280028e-06 1.946215193178e-06 1.896312627793e-06 1.848103123700e-06 1.801515225029e-06 1.756481200504e-06 1.712936800330e-06 1.670821044700e-06 1.630076032587e-06 1.590646783092e-06 1.552481085352e-06 1.515529376042e-06 1.479744631008e-06 1.445082273395e-06 1.411500077173e-06 1.378958008294e-06 1.347417804870e-06 1.316841576800e-06 1.287187097291e-06 1.258392018811e-06 1.230321674275e-06 1.202524202780e-06 2.841049244071e-06 2.761773762531e-06 2.685017877289e-06 2.611046676462e-06 2.539779069689e-06 2.471096619050e-06 2.404880327069e-06 2.341017369874e-06 2.279401738333e-06 2.219933767330e-06 2.162519552037e-06 2.107070432206e-06 2.053502560062e-06 2.001736539190e-06 1.951697110082e-06 1.903312882058e-06 1.856516095923e-06 1.811242418545e-06 1.767430756980e-06 1.725023098145e-06 1.683964371889e-06 1.644202331182e-06 1.605687451077e-06 1.568372828975e-06 1.532214034310e-06 1.497168718644e-06 1.463195333583e-06 1.430248797138e-06 1.398265943267e-06 1.367117281570e-06 1.336380556479e-06 3.016541159053e-06 2.931976879736e-06 2.850424455299e-06 2.771881830207e-06 2.696220804407e-06 2.623306655430e-06 2.553011118638e-06 2.485214001591e-06 2.419802676879e-06 2.356671323194e-06 2.295720247817e-06 2.236855330332e-06 2.179987558761e-06 2.125032646322e-06 2.071910697027e-06 2.020545923567e-06 1.970866393428e-06 1.922803811052e-06 1.876293320736e-06 1.831273338765e-06 1.787685404616e-06 1.745474058254e-06 1.704586734604e-06 1.664973668020e-06 1.626587769780e-06 1.589384331832e-06 1.553320072111e-06 1.518349882432e-06 1.484415840901e-06 1.451410644731e-06 1.419005670790e-06 3.076367360244e-06 2.989552704411e-06 2.906302429309e-06 2.826199075237e-06 2.749050490254e-06 2.674706217703e-06 2.603032658047e-06 2.533906652058e-06 2.467213237313e-06 2.402844491460e-06 2.340698764576e-06 2.280680091546e-06 2.222697718128e-06 2.166665706086e-06 2.112502594194e-06 2.060131111993e-06 2.009477917396e-06 1.960473378607e-06 1.913051370657e-06 1.867149107052e-06 1.822706986126e-06 1.779668469090e-06 1.737979976475e-06 1.697590808060e-06 1.658453066967e-06 1.620521534590e-06 1.583753284651e-06 1.548106338757e-06 1.513534990165e-06 1.479973962133e-06 1.447263503023e-06 3.018311282494e-06 2.932303014966e-06 2.850507854063e-06 2.771912056040e-06 2.696238393395e-06 2.623320392429e-06 2.553022946400e-06 2.485224376439e-06 2.419811738277e-06 2.356679142902e-06 2.295726884663e-06 2.236860842233e-06 2.179992002747e-06 2.125036081478e-06 2.071913182835e-06 2.020547522577e-06 1.970867168849e-06 1.922803831602e-06 1.876292658478e-06 1.831272075908e-06 1.787683634253e-06 1.745471894894e-06 1.704584332345e-06 1.664971280121e-06 1.626585931602e-06 1.589384463026e-06 1.553326513894e-06 1.518376716873e-06 1.484509601221e-06 1.451725191512e-06 1.420121857519e-06 2.844725774688e-06 2.762449352601e-06 2.685190548365e-06 2.611108968808e-06 2.539815026807e-06 2.471124557285e-06 2.404904324804e-06 2.341038401394e-06 2.279420108125e-06 2.219949640751e-06 2.162533062465e-06 2.107081706933e-06 2.053511721504e-06 2.001743710739e-06 1.951702413311e-06 1.903316443744e-06 1.856518045579e-06 1.811242896528e-06 1.767429912321e-06 1.725021101121e-06 1.683961420773e-06 1.644198671754e-06 1.605683418392e-06 1.568368964367e-06 1.532211463397e-06 1.497170392004e-06 1.463210258819e-06 1.430306210178e-06 1.398462485489e-06 1.367772513849e-06 1.338702582713e-06 2.562475956405e-06 2.486553348185e-06 2.416714265145e-06 2.349973942163e-06 2.285793983181e-06 2.223968953437e-06 2.164369980638e-06 2.106890580112e-06 2.051434217552e-06 1.997910964082e-06 1.946236258753e-06 1.896330301097e-06 1.848117620101e-06 1.801526752711e-06 1.756489959259e-06 1.712942991205e-06 1.670824872246e-06 1.630077720864e-06 1.590646579584e-06 1.552479279177e-06 1.515526313623e-06 1.479740742696e-06 1.445078130926e-06 1.411496566023e-06 1.378956929920e-06 1.347423897070e-06 1.316869360021e-06 1.287283639511e-06 1.258712379178e-06 1.231377981222e-06 1.206260295153e-06 2.182751470290e-06 2.115275235023e-06 2.055420033363e-06 1.998556675580e-06 1.943945481254e-06 1.891356023716e-06 1.840665957624e-06 1.791780791622e-06 1.744616924405e-06 1.699097292881e-06 1.655149820022e-06 1.612706617852e-06 1.571703541134e-06 1.532079836388e-06 1.493777925313e-06 1.456743176290e-06 1.420923755424e-06 1.386270446118e-06 1.352736529741e-06 1.320277641000e-06 1.288851672264e-06 1.258418697727e-06 1.228940964664e-06 1.200383059651e-06 1.172712467089e-06 1.145901367054e-06 1.119932201636e-06 1.094815987135e-06 1.070653844470e-06 1.047845407837e-06 1.028106879563e-06 1.720850981818e-06 1.662976374164e-06 1.615240235350e-06 1.570416338721e-06 1.527452707043e-06 1.486097289683e-06 1.446246065523e-06 1.407822386461e-06 1.370757626810e-06 1.334988544597e-06 1.300456639065e-06 1.267107505498e-06 1.234890242356e-06 1.203756934615e-06 1.173662298206e-06 1.144563400093e-06 1.116419484640e-06 1.089191815288e-06 1.062843604250e-06 1.037339967366e-06 1.012647949401e-06 9.887366306141e-07 9.655773071521e-07 9.431438238120e-07 9.214131657662e-07 9.003672761363e-07 8.799998664038e-07 8.603431907404e-07 8.415679090088e-07 8.243372114195e-07 8.115383160903e-07 1.196444007127e-06 1.147094204802e-06 1.112958908649e-06 1.082033982598e-06 1.052476671507e-06 1.023958361833e-06 9.964330012459e-07 9.698834639959e-07 9.442819265479e-07 9.195911913791e-07 8.957702842422e-07 8.727781930858e-07 8.505757431001e-07 8.291263419273e-07 8.083961538542e-07 7.883540378269e-07 7.689714115277e-07 7.502221010107e-07 7.320821830004e-07 7.145297989844e-07 6.975448508614e-07 6.811084633474e-07 6.652020266136e-07 6.498056892571e-07 6.348966385616e-07 6.204494509907e-07 6.064477818427e-07 5.929391776940e-07 5.802356008959e-07 5.695781157468e-07 5.660914585152e-07 6.478359214483e-07 5.885686817487e-07 5.631529496604e-07 5.463150472845e-07 5.321265064526e-07 5.188271514690e-07 5.059100566844e-07 4.932544114302e-07 4.808545254564e-07 4.687328064035e-07 4.569123816545e-07 4.454095791317e-07 4.342329958913e-07 4.233844538303e-07 4.128603013326e-07 4.026525014431e-07 3.927493977434e-07 3.831361633868e-07 3.737949810859e-07 3.647050481590e-07 3.558425974413e-07 3.471812859864e-07 3.386937438097e-07 3.303561351273e-07 3.221601713058e-07 3.141435163757e-07 3.064663542274e-07 2.996062390817e-07 2.948633732385e-07 2.956974377952e-07 3.126825662023e-07 -4.462131898645e-08 1.654445701919e-08 2.685514725352e-08 2.538520223896e-08 2.125240883529e-08 1.707559439339e-08 1.353139400420e-08 1.070606099524e-08 8.517311845219e-09 6.849487348979e-09 5.595600811422e-09 4.668184940505e-09 3.999834169413e-09 3.540711856879e-09 3.255591464271e-09 3.121238809072e-09 3.124373480665e-09 3.260143316829e-09 3.531031594055e-09 3.945990575326e-09 4.519561437202e-09 5.270421283934e-09 6.218414292791e-09 7.377910900267e-09 8.742537788454e-09 1.024972547316e-08 1.169624328267e-08 1.253165275879e-08 1.133773165500e-08 4.478904832655e-09 -1.871009913784e-08 
        </DataArray>
        <DataArray type="Float64" Name="STRAIN_YY" format="ascii">
          -1.479285216179e-06 -1.450620280731e-06 -1.423020788141e-06 -1.396435705799e-06 -1.370818364852e-06 -1.346124824645e-06 -1.322313615024e-06 -1.299345541539e-06 -1.277183521253e-06 -1.255792438566e-06 -1.235139016098e-06 -1.215191697700e-06 -1.195920541554e-06 -1.177297121892e-06 -1.159294438213e-06 -1.141886831102e-06 -1.125049903951e-06 -1.108760449972e-06 -1.092996384006e-06 -1.077736678665e-06 -1.062961304416e-06 -1.048651173232e-06 -1.034788085453e-06 -1.021354679541e-06 -1.008334384406e-06 -9.957113740652e-07 -9.834705245885e-07 -9.715973739920e-07 -9.600780881236e-07 -9.488994433224e-07 -9.380486438902e-07 -1.479285238082e-06 -1.450620076437e-06 -1.423020539865e-06 -1.396435445242e-06 -1.370818098988e-06 -1.346124555179e-06 -1.322313342520e-06 -1.299345266300e-06 -1.277183243522e-06 -1.255792158561e-06 -1.235138734019e-06 -1.215191413732e-06 -1.195920255864e-06 -1.177296834635e-06 -1.159294149530e-06 -1.141886541118e-06 -1.125049612775e-06 -1.108760157704e-06 -1.092996090733e-06 -1.077736384460e-06 -1.062961009341e-06 -1.048650877336e-06 -1.034787788772e-06 -1.021354382084e-06 -1.008334086131e-06 -9.957110747806e-07 -9.834702236091e-07 -9.715970690150e-07 -9.600777714816e-07 -9.488990896207e-07 -9.380481609578e-07 -1.479285327345e-06 -1.450619470281e-06 -1.423019799116e-06 -1.396434667441e-06 -1.370817305592e-06 -1.346123751414e-06 -1.322312530092e-06 -1.299344446134e-06 -1.277182416339e-06 -1.255791325009e-06 -1.235137894693e-06 -1.215190569172e-06 -1.195919406575e-06 -1.177295981072e-06 -1.159293292096e-06 -1.141885680183e-06 -1.125048748665e-06 -1.108759290707e-06 -1.092995221094e-06 -1.077735512394e-06 -1.062960135025e-06 -1.048650000909e-06 -1.034786910326e-06 -1.021353501645e-06 -1.008333203561e-06 -9.957101894746e-07 -9.834693334573e-07 -9.715961669309e-07 -9.600768338633e-07 -9.488980383060e-07 -9.380467122450e-07 -1.479285560132e-06 -1.450618485441e-06 -1.423018580896e-06 -1.396433386899e-06 -1.370816000263e-06 -1.346122430369e-06 -1.322311196247e-06 -1.299343101024e-06 -1.277181061148e-06 -1.255789960788e-06 -1.235136522408e-06 -1.215189189704e-06 -1.195918020729e-06 -1.177294589574e-06 -1.159291895603e-06 -1.141884279272e-06 -1.125047343850e-06 -1.108757882438e-06 -1.092993809754e-06 -1.077734098305e-06 -1.062958718455e-06 -1.048648582060e-06 -1.034785489322e-06 -1.021352078492e-06 -1.008331777986e-06 -9.957087603821e-07 -9.834678971173e-07 -9.715947108900e-07 -9.600753166853e-07 -9.488963228011e-07 -9.380443003706e-07 -1.479286075835e-06 -1.450617163128e-06 -1.423016911521e-06 -1.396431629199e-06 -1.370814210800e-06 -1.346120622631e-06 -1.322309374417e-06 -1.299341267209e-06 -1.277179216936e-06 -1.255788107570e-06 -1.235134661454e-06 -1.215187322181e-06 -1.195916147684e-06 -1.177292711950e-06 -1.159290014242e-06 -1.141882394919e-06 -1.125045457153e-06 -1.108755993949e-06 -1.092991919947e-06 -1.077732207570e-06 -1.062956827092e-06 -1.048646690284e-06 -1.034783597248e-06 -1.021350186049e-06 -1.008329884690e-06 -9.957068645107e-07 -9.834659929699e-07 -9.715927795618e-07 -9.600732953877e-07 -9.488940036924e-07 -9.380409286596e-07 -1.479287097318e-06 -1.450615564621e-06 -1.423014828069e-06 -1.396429430466e-06 -1.370811977135e-06 -1.346118372817e-06 -1.322307113958e-06 -1.299338998673e-06 -1.277176942175e-06 -1.255785828189e-06 -1.235132378905e-06 -1.215185037793e-06 -1.195913862643e-06 -1.177290427312e-06 -1.159287730941e-06 -1.141880113769e-06 -1.125043178849e-06 -1.108753719073e-06 -1.092989648979e-06 -1.077729940880e-06 -1.062954564952e-06 -1.048644432854e-06 -1.034781344548e-06 -1.021347937854e-06 -1.008327640192e-06 -9.957046211509e-07 -9.834637425017e-07 -9.715904948538e-07 -9.600708865172e-07 -9.488911729983e-07 -9.380365945475e-07 -1.479288964656e-06 -1.450613770781e-06 -1.423012372627e-06 -1.396426831156e-06 -1.370809345646e-06 -1.346115734579e-06 -1.322304475848e-06 -1.299336363508e-06 -1.277174311838e-06 -1.255783204287e-06 -1.235129762873e-06 -1.215182430922e-06 -1.195911266083e-06 -1.177287842085e-06 -1.159285157922e-06 -1.141877553694e-06 -1.125040632332e-06 -1.108751186599e-06 -1.092987130913e-06 -1.077727437467e-06 -1.062952076319e-06 -1.048641958990e-06 -1.034778885272e-06 -1.021345492664e-06 -1.008325207781e-06 -9.957021977745e-07 -9.834613164599e-07 -9.715880279676e-07 -9.600682524556e-07 -9.488879535359e-07 -9.380312687396e-07 -1.479292190954e-06 -1.450611874000e-06 -1.423009573973e-06 -1.396423856452e-06 -1.370806350157e-06 -1.346112752566e-06 -1.322301515691e-06 -1.299333428033e-06 -1.277171402636e-06 -1.255780322628e-06 -1.235126909890e-06 -1.215179607623e-06 -1.195908473343e-06 -1.177285080642e-06 -1.159282428382e-06 -1.141874856525e-06 -1.125037967861e-06 -1.108748555027e-06 -1.092984532312e-06 -1.077724871781e-06 -1.062949543349e-06 -1.048639458385e-06 -1.034776416462e-06 -1.021343054666e-06 -1.008322798497e-06 -9.956998117127e-07 -9.834589369805e-07 -9.715856012662e-07 -9.600656008130e-07 -9.488844884239e-07 -9.380248472426e-07 -1.479297562516e-06 -1.450609955994e-06 -1.423006405864e-06 -1.396420472103e-06 -1.370802968897e-06 -1.346109421403e-06 -1.322298244936e-06 -1.299330220221e-06 -1.277168258678e-06 -1.255777243089e-06 -1.235123895232e-06 -1.215176658209e-06 -1.195905589453e-06 -1.177282262427e-06 -1.159279675859e-06 -1.141872169590e-06 -1.125035346276e-06 -1.108745998417e-06 -1.092982040161e-06 -1.077722443431e-06 -1.062947177989e-06 -1.048637155027e-06 -1.034774173824e-06 -1.021340870901e-06 -1.008320670205e-06 -9.956977306847e-07 -9.834568791356e-07 -9.715834895296e-07 -9.600631811137e-07 -9.488809189656e-07 -9.380170574959e-07 -1.479306337443e-06 -1.450608040187e-06 -1.423002701245e-06 -1.396416494877e-06 -1.370799038462e-06 -1.346105604551e-06 -1.322294554924e-06 -1.299326659074e-06 -1.277164826190e-06 -1.255773938646e-06 -1.235120718150e-06 -1.215173607731e-06 -1.195902664782e-06 -1.177279462659e-06 -1.159276999971e-06 -1.141869616428e-06 -1.125032914546e-06 -1.108743686678e-06 -1.092979846817e-06 -1.077720366726e-06 -1.062945215965e-06 -1.048635305495e-06 -1.034772434195e-06 -1.021339237770e-06 -1.008319137920e-06 -9.956962865748e-07 -9.834554872929e-07 -9.715820362666e-07 -9.600612924588e-07 -9.488773549560e-07 -9.380072835626e-07 -1.479320675053e-06 -1.450605990151e-06 -1.422997971248e-06 -1.396411405521e-06 -1.370794076606e-06 -1.346100869956e-06 -1.322290065552e-06 -1.299322416115e-06 -1.277160827666e-06 -1.255770182064e-06 -1.235117200960e-06 -1.215170327341e-06 -1.195899618516e-06 -1.177276647736e-06 -1.159274413509e-06 -1.141867255393e-06 -1.125030775741e-06 -1.108741766734e-06 -1.092978142162e-06 -1.077718873561e-06 -1.062943930195e-06 -1.048634222649e-06 -1.034771549216e-06 -1.021338544360e-06 -1.008318626427e-06 -9.956959366822e-07 -9.834552431523e-07 -9.715817227077e-07 -9.600603347175e-07 -9.488738460901e-07 -9.379942216969e-07 -1.479344634295e-06 -1.450603262525e-06 -1.422990977216e-06 -1.396403904186e-06 -1.370786861641e-06 -1.346094103764e-06 -1.322283773868e-06 -1.299316596846e-06 -1.277155474572e-06 -1.255765289098e-06 -1.235112762465e-06 -1.215166337744e-06 -1.195896072083e-06 -1.177273538519e-06 -1.159271735318e-06 -1.141865001802e-06 -1.125028940078e-06 -1.108740342029e-06 -1.092977121054e-06 -1.077718248253e-06 -1.062943692392e-06 -1.048634363468e-06 -1.034772059023e-06 -1.021339411861e-06 -1.008319835126e-06 -9.956974524517e-07 -9.834569729415e-07 -9.715833779636e-07 -9.600609771545e-07 -9.488703659196e-07 -9.379751130116e-07 -1.479386570136e-06 -1.450598141692e-06 -1.422978566087e-06 -1.396390669780e-06 -1.370774213398e-06 -1.346082370239e-06 -1.322273018302e-06 -1.299306811823e-06 -1.277146637861e-06 -1.255757380070e-06 -1.235105765147e-06 -1.215160239727e-06 -1.195890862582e-06 -1.177269206978e-06 -1.159268270525e-06 -1.141862391474e-06 -1.125027170737e-06 -1.108739399140e-06 -1.092976989302e-06 -1.077718912027e-06 -1.062945136412e-06 -1.048636573158e-06 -1.034775019938e-06 -1.021343106310e-06 -1.008324232278e-06 -9.957024818792e-07 -9.834624509247e-07 -9.715887781693e-07 -9.600646564980e-07 -9.488668740918e-07 -9.379438426797e-07 -1.479463217825e-06 -1.450583906703e-06 -1.422952058755e-06 -1.396362761974e-06 -1.370747085447e-06 -1.346056817790e-06 -1.322249470544e-06 -1.299285472241e-06 -1.277127559717e-06 -1.255740535581e-06 -1.235091094476e-06 -1.215147678038e-06 -1.195880351224e-06 -1.177260696213e-06 -1.159261718710e-06 -1.141857763681e-06 -1.125024437933e-06 -1.108738538168e-06 -1.092977983053e-06 -1.077721748366e-06 -1.062949804134e-06 -1.048643052876e-06 -1.034783268248e-06 -1.021353033089e-06 -1.008335673603e-06 -9.957151691658e-07 -9.834759432040e-07 -9.716021578276e-07 -9.600751461098e-07 -9.488643163626e-07 -9.378864834237e-07 -1.479570946015e-06 -1.450508207031e-06 -1.422877970661e-06 -1.396298270187e-06 -1.370684656775e-06 -1.345992989368e-06 -1.322184704710e-06 -1.299221874449e-06 -1.277067420582e-06 -1.255685707491e-06 -1.235042841327e-06 -1.215106734490e-06 -1.195847047783e-06 -1.177235083026e-06 -1.159243661777e-06 -1.141847006748e-06 -1.125020631365e-06 -1.108741239309e-06 -1.092986634591e-06 -1.077735643555e-06 -1.062968052022e-06 -1.048664564508e-06 -1.034806797001e-06 -1.021377318060e-06 -1.008359744737e-06 -9.957388433029e-07 -9.835003627404e-07 -9.716295753006e-07 -9.601051055487e-07 -9.488772797587e-07 -9.377774160819e-07 -1.483832675356e-06 -1.450526297480e-06 -1.421884353604e-06 -1.395178334185e-06 -1.369687364496e-06 -1.345163062808e-06 -1.321504571626e-06 -1.298659516460e-06 -1.276592045427e-06 -1.255272099639e-06 -1.234671788375e-06 -1.214764239179e-06 -1.195523314945e-06 -1.176923622875e-06 -1.158940604118e-06 -1.141550633393e-06 -1.124731104205e-06 -1.108460495159e-06 -1.092718416691e-06 -1.077485634026e-06 -1.062744049668e-06 -1.048476603017e-06 -1.034666991068e-06 -1.021298990417e-06 -1.008354878621e-06 -9.958117718080e-07 -9.836330059318e-07 -9.717473623955e-07 -9.599975686047e-07 -9.480089661726e-07 -9.347468904152e-07 -1.434291453996e-06 -1.439091621461e-06 -1.423147763357e-06 -1.401183176346e-06 -1.377409070439e-06 -1.353364646309e-06 -1.329659685049e-06 -1.306546377002e-06 -1.284126125028e-06 -1.262431865561e-06 -1.241463845074e-06 -1.221206350763e-06 -1.201636016050e-06 -1.182726122238e-06 -1.164448913590e-06 -1.146776879084e-06 -1.129683518333e-06 -1.113143879816e-06 -1.097135061809e-06 -1.081636855032e-06 -1.066632728774e-06 -1.052111498491e-06 -1.038070279932e-06 -1.024519949764e-06 -1.011495687908e-06 -9.990783555047e-07 -9.874401727176e-07 -9.769475178783e-07 -9.684038181213e-07 -9.636487717350e-07 -9.675364455307e-07 
        </DataArray>
        <DataArray type="Float64" Name="DISPLACEMENT" NumberOfComponents="3" format="ascii">
          -2.586340890912e-07 0.000000000000e+00 0.000000000000e+00 -2.560376259729e-07 0.000000000000e+00 0.000000000000e+00 -2.535361768742e-07 0.000000000000e+00 0.000000000000e+00 -2.511257273780e-07 0.000000000000e+00 0.000000000000e+00 -2.488026940399e-07 0.000000000000e+00 0.000000000000e+00 -2.465637544367e-07 0.000000000000e+00 0.000000000000e+00 -2.444057876624e-07 0.000000000000e+00 0.000000000000e+00 -2.423258440812e-07 0.000000000000e+00 0.000000000000e+00 -2.403211254691e-07 0.000000000000e+00 0.000000000000e+00 -2.383889702755e-07 0.000000000000e+00 0.000000000000e+00 -2.365268420009e-07 0.000000000000e+00 0.000000000000e+00 -2.347323196777e-07 0.000000000000e+00 0.000000000000e+00 -2.330030898519e-07 0.000000000000e+00 0.000000000000e+00 -2.313369396417e-07 0.000000000000e+00 0.000000000000e+00 -2.297317506177e-07 0.000000000000e+00 0.000000000000e+00 -2.281854932933e-07 0.000000000000e+00 0.000000000000e+00 -2.266962220852e-07 0.000000000000e+00 0.000000000000e+00 -2.252620706512e-07 0.000000000000e+00 0.000000000000e+00 -2.238812475029e-07 0.000000000000e+00 0.000000000000e+00 -2.225520318411e-07 0.000000000000e+00 0.000000000000e+00 -2.212727695355e-07 0.000000000000e+00 0.000000000000e+00 -2.200418692012e-07 0.000000000000e+00 0.000000000000e+00 -2.188577983015e-07 0.000000000000e+00 0.000000000000e+00 -2.177190792117e-07 0.000000000000e+00 0.000000000000e+00 -2.166242851769e-07 0.000000000000e+00 0.000000000000e+00 -2.155720361158e-07 0.000000000000e+00 0.000000000000e+00 -2.145609942975e-07 0.000000000000e+00 0.000000000000e+00 -2.135898602674e-07 0.000000000000e+00 0.000000000000e+00 -2.126573705242e-07 0.000000000000e+00 0.000000000000e+00 -2.117623022584e-07 0.000000000000e+00 0.000000000000e+00 -2.109035028643e-07 0.000000000000e+00 0.000000000000e+00 -2.573887850847e-07 -2.534891594946e-08 0.000000000000e+00 -2.548047180634e-07 -2.509549090156e-08 0.000000000000e+00 -2.523152906693e-07 -2.485054599290e-08 0.000000000000e+00 -2.499164423189e-07 -2.461434274677e-08 0.000000000000e+00 -2.476045929890e-07 -2.438666875030e-08 0.000000000000e+00 -2.453764332969e-07 -2.416722832435e-08 0.000000000000e+00 -2.432288567278e-07 -2.395572222029e-08 0.000000000000e+00 -2.411589277111e-07 -2.375186288505e-08 0.000000000000e+00 -2.391638614687e-07 -2.355537646193e-08 0.000000000000e+00 -2.372410092605e-07 -2.336600221980e-08 0.000000000000e+00 -2.353878467992e-07 -2.318349161099e-08 0.000000000000e+00 -2.336019647733e-07 -2.300760738594e-08 0.000000000000e+00 -2.318810608678e-07 -2.283812282123e-08 0.000000000000e+00 -2.302229328549e-07 -2.267482104502e-08 0.000000000000e+00 -2.286254725044e-07 -2.251749443748e-08 0.000000000000e+00 -2.270866601003e-07 -2.236594409202e-08 0.000000000000e+00 -2.256045594249e-07 -2.221997932325e-08 0.000000000000e+00 -2.241773131219e-07 -2.207941720875e-08 0.000000000000e+00 -2.228031383268e-07 -2.194408216061e-08 0.000000000000e+00 -2.214803225241e-07 -2.181380551641e-08 0.000000000000e+00 -2.202072195456e-07 -2.168842514451e-08 0.000000000000e+00 -2.189822456665e-07 -2.156778506389e-08 0.000000000000e+00 -2.178038757246e-07 -2.145173507011e-08 0.000000000000e+00 -2.166706391996e-07 -2.134013038371e-08 0.000000000000e+00 -2.155811161796e-07 -2.123283137631e-08 0.000000000000e+00 -2.145339331420e-07 -2.112970358099e-08 0.000000000000e+00 -2.135277585105e-07 -2.103061871159e-08 0.000000000000e+00 -2.125612981297e-07 -2.093545911722e-08 0.000000000000e+00 -2.116332913785e-07 -2.084413375359e-08 0.000000000000e+00 -2.107425106856e-07 -2.075663220292e-08 0.000000000000e+00 -2.098877738685e-07 -2.067320301639e-08 0.000000000000e+00 -2.536648724892e-07 -5.045370012322e-08 0.000000000000e+00 -2.511178714040e-07 -4.994928922625e-08 0.000000000000e+00 -2.486643928367e-07 -4.946175750475e-08 0.000000000000e+00 -2.463002362016e-07 -4.899162500998e-08 0.000000000000e+00 -2.440218313009e-07 -4.853846885504e-08 0.000000000000e+00 -2.418259076619e-07 -4.810170051805e-08 0.000000000000e+00 -2.397094017840e-07 -4.768072439372e-08 0.000000000000e+00 -2.376694201560e-07 -4.727496815441e-08 0.000000000000e+00 -2.357032182050e-07 -4.688388673156e-08 0.000000000000e+00 -2.338081854987e-07 -4.650696117815e-08 0.000000000000e+00 -2.319818342682e-07 -4.614369679694e-08 0.000000000000e+00 -2.302217900587e-07 -4.579362137620e-08 0.000000000000e+00 -2.285257838657e-07 -4.545628365292e-08 0.000000000000e+00 -2.268916453199e-07 -4.513125197342e-08 0.000000000000e+00 -2.253172966890e-07 -4.481811309814e-08 0.000000000000e+00 -2.238007474759e-07 -4.451647112776e-08 0.000000000000e+00 -2.223400894720e-07 -4.422594652927e-08 0.000000000000e+00 -2.209334921892e-07 -4.394617521850e-08 0.000000000000e+00 -2.195791985515e-07 -4.367680770979e-08 0.000000000000e+00 -2.182755208159e-07 -4.341750829981e-08 0.000000000000e+00 -2.170208366252e-07 -4.316795428745e-08 0.000000000000e+00 -2.158135851588e-07 -4.292783521219e-08 0.000000000000e+00 -2.146522633072e-07 -4.269685210679e-08 0.000000000000e+00 -2.135354217972e-07 -4.247471680319e-08 0.000000000000e+00 -2.124616611769e-07 -4.226115138816e-08 0.000000000000e+00 -2.114296275344e-07 -4.205588821888e-08 0.000000000000e+00 -2.104380076920e-07 -4.185867195068e-08 0.000000000000e+00 -2.094855233128e-07 -4.166926841107e-08 0.000000000000e+00 -2.085709222948e-07 -4.148749640277e-08 0.000000000000e+00 -2.076929625126e-07 -4.131333527383e-08 0.000000000000e+00 -2.068503722906e-07 -4.114728011570e-08 0.000000000000e+00 -2.474982346347e-07 -7.507257512406e-08 0.000000000000e+00 -2.450126031526e-07 -7.432203318969e-08 0.000000000000e+00 -2.426186527615e-07 -7.359660813005e-08 0.000000000000e+00 -2.403119443356e-07 -7.289707249278e-08 0.000000000000e+00 -2.380889225502e-07 -7.222279676595e-08 0.000000000000e+00 -2.359463810737e-07 -7.157290522876e-08 0.000000000000e+00 -2.338813275761e-07 -7.094651166809e-08 0.000000000000e+00 -2.318909381800e-07 -7.034276451384e-08 0.000000000000e+00 -2.299725348883e-07 -6.976085275065e-08 0.000000000000e+00 -2.281235707024e-07 -6.920000422361e-08 0.000000000000e+00 -2.263416183290e-07 -6.865948285381e-08 0.000000000000e+00 -2.246243610354e-07 -6.813858602142e-08 0.000000000000e+00 -2.229695849738e-07 -6.763664227382e-08 0.000000000000e+00 -2.213751725346e-07 -6.715300933094e-08 0.000000000000e+00 -2.198390964906e-07 -6.668707231229e-08 0.000000000000e+00 -2.183594147271e-07 -6.623824214184e-08 0.000000000000e+00 -2.169342654191e-07 -6.580595409088e-08 0.000000000000e+00 -2.155618625708e-07 -6.538966641715e-08 0.000000000000e+00 -2.142404918128e-07 -6.498885910209e-08 0.000000000000e+00 -2.129685064223e-07 -6.460303263428e-08 0.000000000000e+00 -2.117443234730e-07 -6.423170684459e-08 0.000000000000e+00 -2.105664200745e-07 -6.387441977716e-08 0.000000000000e+00 -2.094333296350e-07 -6.353072658001e-08 0.000000000000e+00 -2.083436380629e-07 -6.320019846707e-08 0.000000000000e+00 -2.072959797879e-07 -6.288242190271e-08 0.000000000000e+00 -2.062890333629e-07 -6.257699863583e-08 0.000000000000e+00 -2.053215160495e-07 -6.228354871527e-08 0.000000000000e+00 -2.043921756126e-07 -6.200172369258e-08 0.000000000000e+00 -2.034997737362e-07 -6.173125398062e-08 0.000000000000e+00 -2.026430431142e-07 -6.147210906495e-08 0.000000000000e+00 -2.018205602557e-07 -6.122502661988e-08 0.000000000000e+00 -2.389482940569e-07 -9.896844919522e-08 0.000000000000e+00 -2.365477283075e-07 -9.797899984245e-08 0.000000000000e+00 -2.342363093434e-07 -9.702266518557e-08 0.000000000000e+00 -2.320092523850e-07 -9.610046114355e-08 0.000000000000e+00 -2.298630196400e-07 -9.521155727111e-08 0.000000000000e+00 -2.277944930599e-07 -9.435479904018e-08 0.000000000000e+00 -2.258007788527e-07 -9.352901818991e-08 0.000000000000e+00 -2.238791496602e-07 -9.273309213730e-08 0.000000000000e+00 -2.220270197869e-07 -9.196595175596e-08 0.000000000000e+00 -2.202419301829e-07 -9.122657913614e-08 0.000000000000e+00 -2.185215374029e-07 -9.051400391631e-08 0.000000000000e+00 -2.168636047500e-07 -8.982729983795e-08 0.000000000000e+00 -2.152659948486e-07 -8.916558173117e-08 0.000000000000e+00 -2.137266632402e-07 -8.852800287733e-08 0.000000000000e+00 -2.122436527246e-07 -8.791375267561e-08 0.000000000000e+00 -2.108150882701e-07 -8.732205454282e-08 0.000000000000e+00 -2.094391723614e-07 -8.675216399275e-08 0.000000000000e+00 -2.081141806901e-07 -8.620336684179e-08 0.000000000000e+00 -2.068384581026e-07 -8.567497754035e-08 0.000000000000e+00 -2.056104147507e-07 -8.516633757353e-08 0.000000000000e+00 -2.044285223766e-07 -8.467681392596e-08 0.000000000000e+00 -2.032913106805e-07 -8.420579758899e-08 0.000000000000e+00 -2.021973637040e-07 -8.375270209899e-08 0.000000000000e+00 -2.011453161322e-07 -8.331696217043e-08 0.000000000000e+00 -2.001338493643e-07 -8.289803261711e-08 0.000000000000e+00 -1.991616869491e-07 -8.249538839773e-08 0.000000000000e+00 -1.982275882911e-07 -8.210852859150e-08 0.000000000000e+00 -1.973303371348e-07 -8.173699381598e-08 0.000000000000e+00 -1.964687135680e-07 -8.138042872963e-08 0.000000000000e+00 -1.956414129715e-07 -8.103879353030e-08 0.000000000000e+00 -1.948467933168e-07 -8.071306269695e-08 0.000000000000e+00 -2.280974419045e-07 -1.219112023351e-07 0.000000000000e+00 -2.258047928792e-07 -1.206923683604e-07 0.000000000000e+00 -2.235981093115e-07 -1.195143310549e-07 0.000000000000e+00 -2.214721399471e-07 -1.183783373554e-07 0.000000000000e+00 -2.194233635058e-07 -1.172833633116e-07 0.000000000000e+00 -2.174487727803e-07 -1.162279866395e-07 0.000000000000e+00 -2.155455987809e-07 -1.152107683224e-07 0.000000000000e+00 -2.137112365925e-07 -1.142303256231e-07 0.000000000000e+00 -2.119432176530e-07 -1.132853416324e-07 0.000000000000e+00 -2.102391945324e-07 -1.123745625108e-07 0.000000000000e+00 -2.085969301997e-07 -1.114967929779e-07 0.000000000000e+00 -2.070142895336e-07 -1.106508920666e-07 0.000000000000e+00 -2.054892322165e-07 -1.098357694156e-07 0.000000000000e+00 -2.040198066287e-07 -1.090503820236e-07 0.000000000000e+00 -2.026041444430e-07 -1.082937313787e-07 0.000000000000e+00 -2.012404557678e-07 -1.075648608677e-07 0.000000000000e+00 -1.999270247059e-07 -1.068628534101e-07 0.000000000000e+00 -1.986622052400e-07 -1.061868292554e-07 0.000000000000e+00 -1.974444173687e-07 -1.055359439213e-07 0.000000000000e+00 -1.962721434258e-07 -1.049093862240e-07 0.000000000000e+00 -1.951439245369e-07 -1.043063763890e-07 0.000000000000e+00 -1.940583571462e-07 -1.037261642093e-07 0.000000000000e+00 -1.930140895544e-07 -1.031680272457e-07 0.000000000000e+00 -1.920098183485e-07 -1.026312691398e-07 0.000000000000e+00 -1.910442845276e-07 -1.021152182857e-07 0.000000000000e+00 -1.901162687144e-07 -1.016192278814e-07 0.000000000000e+00 -1.892245836833e-07 -1.011426808296e-07 0.000000000000e+00 -1.883680584516e-07 -1.006850112167e-07 0.000000000000e+00 -1.875454951460e-07 -1.002457814225e-07 0.000000000000e+00 -1.867555373244e-07 -9.982494316648e-08 0.000000000000e+00 -1.859962506037e-07 -9.942370037298e-08 0.000000000000e+00 -2.150502471662e-07 -1.436799045462e-07 0.000000000000e+00 -2.128872875073e-07 -1.422434161958e-07 0.000000000000e+00 -2.108065277557e-07 -1.408550181438e-07 0.000000000000e+00 -2.088021082809e-07 -1.395161724830e-07 0.000000000000e+00 -2.068705178873e-07 -1.382256707775e-07 0.000000000000e+00 -2.050088806083e-07 -1.369818365930e-07 0.000000000000e+00 -2.032145770915e-07 -1.357829740756e-07 0.000000000000e+00 -2.014851495646e-07 -1.346274537173e-07 0.000000000000e+00 -1.998182702958e-07 -1.335137235630e-07 0.000000000000e+00 -1.982117260742e-07 -1.324403059555e-07 0.000000000000e+00 -1.966634078277e-07 -1.314057922290e-07 0.000000000000e+00 -1.951713025715e-07 -1.304088377108e-07 0.000000000000e+00 -1.937334867014e-07 -1.294481573585e-07 0.000000000000e+00 -1.923481202335e-07 -1.285225219360e-07 0.000000000000e+00 -1.910134417057e-07 -1.276307546350e-07 0.000000000000e+00 -1.897277636028e-07 -1.267717280230e-07 0.000000000000e+00 -1.884894681709e-07 -1.259443612563e-07 0.000000000000e+00 -1.872970035356e-07 -1.251476174828e-07 0.000000000000e+00 -1.861488800605e-07 -1.243805014105e-07 0.000000000000e+00 -1.850436668762e-07 -1.236420569907e-07 0.000000000000e+00 -1.839799885372e-07 -1.229313651887e-07 0.000000000000e+00 -1.829565217425e-07 -1.222475418082e-07 0.000000000000e+00 -1.819719920583e-07 -1.215897353730e-07 0.000000000000e+00 -1.810251705024e-07 -1.209571251336e-07 0.000000000000e+00 -1.801148697192e-07 -1.203489195029e-07 0.000000000000e+00 -1.792399389023e-07 -1.197643561074e-07 0.000000000000e+00 -1.783992548070e-07 -1.192027075711e-07 0.000000000000e+00 -1.775917002296e-07 -1.186633068661e-07 0.000000000000e+00 -1.768161015478e-07 -1.181456383848e-07 0.000000000000e+00 -1.760710323892e-07 -1.176496464639e-07 0.000000000000e+00 -1.753541811866e-07 -1.171767559140e-07 0.000000000000e+00 -1.999324542041e-07 -1.640649447297e-07 0.000000000000e+00 -1.979196488433e-07 -1.624246266312e-07 0.000000000000e+00 -1.959847778900e-07 -1.608392360958e-07 0.000000000000e+00 -1.941211990780e-07 -1.593104304778e-07 0.000000000000e+00 -1.923253969772e-07 -1.578368272418e-07 0.000000000000e+00 -1.905946443760e-07 -1.564165118238e-07 0.000000000000e+00 -1.889264946238e-07 -1.550475479594e-07 0.000000000000e+00 -1.873186603112e-07 -1.537280751705e-07 0.000000000000e+00 -1.857689768645e-07 -1.524563214882e-07 0.000000000000e+00 -1.842753865918e-07 -1.512305997274e-07 0.000000000000e+00 -1.828359287010e-07 -1.500493014412e-07 0.000000000000e+00 -1.814487317347e-07 -1.489108912282e-07 0.000000000000e+00 -1.801120073330e-07 -1.478139017538e-07 0.000000000000e+00 -1.788240448685e-07 -1.467569293946e-07 0.000000000000e+00 -1.775832067120e-07 -1.457386303829e-07 0.000000000000e+00 -1.763879239788e-07 -1.447577173248e-07 0.000000000000e+00 -1.752366926363e-07 -1.438129560182e-07 0.000000000000e+00 -1.741280698997e-07 -1.429031624870e-07 0.000000000000e+00 -1.730606708426e-07 -1.420272002072e-07 0.000000000000e+00 -1.720331651704e-07 -1.411839774598e-07 0.000000000000e+00 -1.710442741076e-07 -1.403724447839e-07 0.000000000000e+00 -1.700927673483e-07 -1.395915924882e-07 0.000000000000e+00 -1.691774599832e-07 -1.388404482347e-07 0.000000000000e+00 -1.682972092672e-07 -1.381180747506e-07 0.000000000000e+00 -1.674509108331e-07 -1.374235680462e-07 0.000000000000e+00 -1.666374932365e-07 -1.367560574617e-07 0.000000000000e+00 -1.658559070541e-07 -1.361147122803e-07 0.000000000000e+00 -1.651050963268e-07 -1.354987707318e-07 0.000000000000e+00 -1.643839118738e-07 -1.349076442999e-07 0.000000000000e+00 -1.636908338550e-07 -1.343412714141e-07 0.000000000000e+00 -1.630230715942e-07 -1.338012886467e-07 0.000000000000e+00 -1.828897807222e-07 -1.828700498618e-07 0.000000000000e+00 -1.810460585949e-07 -1.810416873486e-07 0.000000000000e+00 -1.792756195125e-07 -1.792745710420e-07 0.000000000000e+00 -1.775708136202e-07 -1.775705285619e-07 0.000000000000e+00 -1.759280952287e-07 -1.759280146879e-07 0.000000000000e+00 -1.743448995463e-07 -1.743448949920e-07 0.000000000000e+00 -1.728189735165e-07 -1.728190116072e-07 0.000000000000e+00 -1.713482215633e-07 -1.713482911832e-07 0.000000000000e+00 -1.699306630137e-07 -1.699307589380e-07 0.000000000000e+00 -1.685644154981e-07 -1.685645345055e-07 0.000000000000e+00 -1.672476853933e-07 -1.672478252144e-07 0.000000000000e+00 -1.659787607991e-07 -1.659789197676e-07 0.000000000000e+00 -1.647560058314e-07 -1.647561826962e-07 0.000000000000e+00 -1.635778556950e-07 -1.635780495269e-07 0.000000000000e+00 -1.624428123681e-07 -1.624430224844e-07 0.000000000000e+00 -1.613494407084e-07 -1.613496666137e-07 0.000000000000e+00 -1.602963648908e-07 -1.602966062372e-07 0.000000000000e+00 -1.592822651137e-07 -1.592825216527e-07 0.000000000000e+00 -1.583058744953e-07 -1.583061460394e-07 0.000000000000e+00 -1.573659761256e-07 -1.573662625048e-07 0.000000000000e+00 -1.564614002094e-07 -1.564617012461e-07 0.000000000000e+00 -1.555910212768e-07 -1.555913367721e-07 0.000000000000e+00 -1.547537553367e-07 -1.547540852089e-07 0.000000000000e+00 -1.539485568454e-07 -1.539489017369e-07 0.000000000000e+00 -1.531744149492e-07 -1.531747786008e-07 0.000000000000e+00 -1.524303475221e-07 -1.524307451534e-07 0.000000000000e+00 -1.517153878621e-07 -1.517158752342e-07 0.000000000000e+00 -1.510285473448e-07 -1.510293195909e-07 0.000000000000e+00 -1.503686984918e-07 -1.503704226312e-07 0.000000000000e+00 -1.497341961136e-07 -1.497391188952e-07 0.000000000000e+00 -1.491216414245e-07 -1.491372481498e-07 0.000000000000e+00 -1.640865335533e-07 -1.999141759432e-07 0.000000000000e+00 -1.624290529369e-07 -1.979153613272e-07 0.000000000000e+00 -1.608399780436e-07 -1.959835384221e-07 0.000000000000e+00 -1.593103440709e-07 -1.941206727507e-07 0.000000000000e+00 -1.578365310913e-07 -1.923250682725e-07 0.000000000000e+00 -1.564161450776e-07 -1.905943910243e-07 0.000000000000e+00 -1.550471448012e-07 -1.889262825984e-07 0.000000000000e+00 -1.537276459766e-07 -1.873184770361e-07 0.000000000000e+00 -1.524558707710e-07 -1.857688159885e-07 0.000000000000e+00 -1.512301302484e-07 -1.842752441824e-07 0.000000000000e+00 -1.500488152286e-07 -1.828358021021e-07 0.000000000000e+00 -1.489103898609e-07 -1.814486191128e-07 0.000000000000e+00 -1.478133864933e-07 -1.801119074154e-07 0.000000000000e+00 -1.467564012382e-07 -1.788239567872e-07 0.000000000000e+00 -1.457380901099e-07 -1.775831298890e-07 0.000000000000e+00 -1.447571655279e-07 -1.763878580352e-07 0.000000000000e+00 -1.438123931238e-07 -1.752366373238e-07 0.000000000000e+00 -1.429025887870e-07 -1.741280250290e-07 0.000000000000e+00 -1.420266158777e-07 -1.730606362200e-07 0.000000000000e+00 -1.411833825842e-07 -1.720331405278e-07 0.000000000000e+00 -1.403718393473e-07 -1.710442590435e-07 0.000000000000e+00 -1.395909763568e-07 -1.700927612727e-07 0.000000000000e+00 -1.388398209565e-07 -1.691774621826e-07 0.000000000000e+00 -1.381174348176e-07 -1.682972193907e-07 0.000000000000e+00 -1.374229101887e-07 -1.674509309727e-07 0.000000000000e+00 -1.367553632498e-07 -1.666375355067e-07 0.000000000000e+00 -1.361139177669e-07 -1.658560201515e-07 0.000000000000e+00 -1.354976566731e-07 -1.651054562310e-07 0.000000000000e+00 -1.349054670664e-07 -1.643851276188e-07 0.000000000000e+00 -1.343355332542e-07 -1.636949678184e-07 0.000000000000e+00 -1.337836747824e-07 -1.630370139429e-07 0.000000000000e+00 -1.437040688727e-07 -2.150332542203e-07 0.000000000000e+00 -1.422479577872e-07 -2.128832130857e-07 0.000000000000e+00 -1.408553879881e-07 -2.108052929597e-07 0.000000000000e+00 -1.395156303562e-07 -2.088015524269e-07 0.000000000000e+00 -1.382249179888e-07 -2.068701558433e-07 0.000000000000e+00 -1.369810283240e-07 -2.050085919110e-07 0.000000000000e+00 -1.357821468078e-07 -2.032143249195e-07 0.000000000000e+00 -1.346266175660e-07 -2.014849186350e-07 0.000000000000e+00 -1.335128825319e-07 -1.998180523198e-07 0.000000000000e+00 -1.324394624478e-07 -1.982115158710e-07 0.000000000000e+00 -1.314049480761e-07 -1.966632019971e-07 0.000000000000e+00 -1.304079944142e-07 -1.951710988752e-07 0.000000000000e+00 -1.294473161668e-07 -1.937332836940e-07 0.000000000000e+00 -1.285216838742e-07 -1.923479170126e-07 0.000000000000e+00 -1.276299205279e-07 -1.910132377313e-07 0.000000000000e+00 -1.267708985041e-07 -1.897275585642e-07 0.000000000000e+00 -1.259435367732e-07 -1.884892618755e-07 0.000000000000e+00 -1.251467983135e-07 -1.872967958030e-07 0.000000000000e+00 -1.243796876625e-07 -1.861486706255e-07 0.000000000000e+00 -1.236412486064e-07 -1.850434552781e-07 0.000000000000e+00 -1.229305619143e-07 -1.839797740117e-07 0.000000000000e+00 -1.222467431336e-07 -1.829563031054e-07 0.000000000000e+00 -1.215889402765e-07 -1.819717676755e-07 0.000000000000e+00 -1.209563311897e-07 -1.810249386393e-07 0.000000000000e+00 -1.203481197603e-07 -1.801146303401e-07 0.000000000000e+00 -1.197635283268e-07 -1.792397005991e-07 0.000000000000e+00 -1.192017773963e-07 -1.783990594103e-07 0.000000000000e+00 -1.186620230241e-07 -1.775917073778e-07 0.000000000000e+00 -1.181431528994e-07 -1.768168749434e-07 0.000000000000e+00 -1.176431134751e-07 -1.760744988533e-07 0.000000000000e+00 -1.171566912768e-07 -1.753668152270e-07 0.000000000000e+00 -1.219391451367e-07 -2.280817770193e-07 0.000000000000e+00 -1.206971680080e-07 -2.258011730333e-07 0.000000000000e+00 -1.195142752523e-07 -2.235971801467e-07 0.000000000000e+00 -1.183772563248e-07 -2.214718800532e-07 0.000000000000e+00 -1.172820755101e-07 -2.194233055512e-07 0.000000000000e+00 -1.162266715435e-07 -2.174487919731e-07 0.000000000000e+00 -1.152094669136e-07 -2.155456519202e-07 0.000000000000e+00 -1.142290482874e-07 -2.137113033546e-07 0.000000000000e+00 -1.132840919346e-07 -2.119432862011e-07 0.000000000000e+00 -1.123733424787e-07 -2.102392573025e-07 0.000000000000e+00 -1.114956042289e-07 -2.085969822478e-07 0.000000000000e+00 -1.106497360158e-07 -2.070143276575e-07 0.000000000000e+00 -1.098346472861e-07 -2.054892544023e-07 0.000000000000e+00 -1.090492948435e-07 -2.040198116568e-07 0.000000000000e+00 -1.082926799734e-07 -2.026041316038e-07 0.000000000000e+00 -1.075638458515e-07 -2.012404246497e-07 0.000000000000e+00 -1.068618751799e-07 -1.999269750168e-07 0.000000000000e+00 -1.061858879903e-07 -1.986621366455e-07 0.000000000000e+00 -1.055350395587e-07 -1.974443293364e-07 0.000000000000e+00 -1.049085184532e-07 -1.962720350417e-07 0.000000000000e+00 -1.043055446038e-07 -1.951437943092e-07 0.000000000000e+00 -1.037253674064e-07 -1.940582027893e-07 0.000000000000e+00 -1.031672637020e-07 -1.930139078317e-07 0.000000000000e+00 -1.026305353045e-07 -1.920096052715e-07 0.000000000000e+00 -1.021145050281e-07 -1.910440369097e-07 0.000000000000e+00 -1.016185077632e-07 -1.901159905296e-07 0.000000000000e+00 -1.011418650195e-07 -1.892243089679e-07 0.000000000000e+00 -1.006838036887e-07 -1.883679308700e-07 0.000000000000e+00 -1.002431869061e-07 -1.875460403444e-07 0.000000000000e+00 -9.981761564040e-08 -1.867585850679e-07 0.000000000000e+00 -9.940044389284e-08 -1.860080213746e-07 0.000000000000e+00 -9.900228511520e-08 -2.389341994086e-07 0.000000000000e+00 -9.798428842492e-08 -2.365449111053e-07 0.000000000000e+00 -9.702208701194e-08 -2.342361056493e-07 0.000000000000e+00 -9.609869633970e-08 -2.320097588610e-07 0.000000000000e+00 -9.520959093782e-08 -2.298637689043e-07 0.000000000000e+00 -9.435284758000e-08 -2.277953435417e-07 0.000000000000e+00 -9.352713260937e-08 -2.258016731443e-07 0.000000000000e+00 -9.273128562768e-08 -2.238800574867e-07 0.000000000000e+00 -9.196422826635e-08 -2.220279225002e-07 0.000000000000e+00 -9.122494035377e-08 -2.202428155187e-07 0.000000000000e+00 -9.051245105941e-08 -2.185223971692e-07 0.000000000000e+00 -8.982583407321e-08 -2.168644335201e-07 0.000000000000e+00 -8.916420417004e-08 -2.152667891108e-07 0.000000000000e+00 -8.852671451847e-08 -2.137274207716e-07 0.000000000000e+00 -8.791255432860e-08 -2.122443721211e-07 0.000000000000e+00 -8.732094677239e-08 -2.108157685809e-07 0.000000000000e+00 -8.675114708257e-08 -2.094398127691e-07 0.000000000000e+00 -8.620244079183e-08 -2.081147802186e-07 0.000000000000e+00 -8.567414204410e-08 -2.068390153354e-07 0.000000000000e+00 -8.516559200977e-08 -2.056109275232e-07 0.000000000000e+00 -8.467615729644e-08 -2.044289874642e-07 0.000000000000e+00 -8.420522831888e-08 -2.032917234895e-07 0.000000000000e+00 -8.375221747457e-08 -2.021977180418e-07 0.000000000000e+00 -8.331655670010e-08 -2.011456042852e-07 0.000000000000e+00 -8.289769316851e-08 -2.001340632801e-07 0.000000000000e+00 -8.249507877339e-08 -1.991618234679e-07 0.000000000000e+00 -8.210813822909e-08 -1.982276692921e-07 0.000000000000e+00 -8.173616252363e-08 -1.973304838303e-07 0.000000000000e+00 -8.137794520900e-08 -1.964694118132e-07 0.000000000000e+00 -8.103054806567e-08 -1.956444331583e-07 0.000000000000e+00 -8.068517665526e-08 -1.948582953910e-07 0.000000000000e+00 -7.511655380010e-08 -2.474860673121e-07 0.000000000000e+00 -7.432814365880e-08 -2.450109207671e-07 0.000000000000e+00 -7.359521109179e-08 -2.426196363532e-07 0.000000000000e+00 -7.289428584522e-08 -2.403138206205e-07 0.000000000000e+00 -7.221982976005e-08 -2.380911872066e-07 0.000000000000e+00 -7.157000716416e-08 -2.359488372224e-07 0.000000000000e+00 -7.094374781870e-08 -2.338838768047e-07 0.000000000000e+00 -7.034016066208e-08 -2.318935245978e-07 0.000000000000e+00 -6.975842180091e-08 -2.299751246334e-07 0.000000000000e+00 -6.919775261759e-08 -2.281261423393e-07 0.000000000000e+00 -6.865741342959e-08 -2.263441578204e-07 0.000000000000e+00 -6.813669977567e-08 -2.246268589332e-07 0.000000000000e+00 -6.763493936120e-08 -2.229720347672e-07 0.000000000000e+00 -6.715148960255e-08 -2.213775695775e-07 0.000000000000e+00 -6.668573553520e-08 -2.198414372484e-07 0.000000000000e+00 -6.623708807242e-08 -2.183616961960e-07 0.000000000000e+00 -6.580498246116e-08 -2.169364846422e-07 0.000000000000e+00 -6.538887687814e-08 -2.155640162269e-07 0.000000000000e+00 -6.498825106500e-08 -2.142425758697e-07 0.000000000000e+00 -6.460260498053e-08 -2.129705158084e-07 0.000000000000e+00 -6.423145740038e-08 -2.117462517374e-07 0.000000000000e+00 -6.387434444546e-08 -2.105682589342e-07 0.000000000000e+00 -6.353081801219e-08 -2.094350682186e-07 0.000000000000e+00 -6.320044385765e-08 -2.083452616270e-07 0.000000000000e+00 -6.288279809103e-08 -2.072974681129e-07 0.000000000000e+00 -6.257745635341e-08 -2.062903613402e-07 0.000000000000e+00 -6.228395343017e-08 -2.053226683108e-07 0.000000000000e+00 -6.200163313546e-08 -2.043932198975e-07 0.000000000000e+00 -6.172911574568e-08 -2.035011458927e-07 0.000000000000e+00 -6.146248723547e-08 -2.026465402532e-07 0.000000000000e+00 -6.118934505470e-08 -2.018326043822e-07 0.000000000000e+00 -5.051887221812e-08 -2.536544314172e-07 0.000000000000e+00 -4.995687512616e-08 -2.511169883854e-07 0.000000000000e+00 -4.945810477735e-08 -2.486664079503e-07 0.000000000000e+00 -4.898641219325e-08 -2.463037220742e-07 0.000000000000e+00 -4.853342748073e-08 -2.440262565620e-07 0.000000000000e+00 -4.809701398174e-08 -2.418309323026e-07 0.000000000000e+00 -4.767636361265e-08 -2.397147830961e-07 0.000000000000e+00 -4.727091829495e-08 -2.376749934568e-07 0.000000000000e+00 -4.688015778172e-08 -2.357088788354e-07 0.000000000000e+00 -4.650357166362e-08 -2.338138704868e-07 0.000000000000e+00 -4.614066314306e-08 -2.319875072441e-07 0.000000000000e+00 -4.579095410079e-08 -2.302274304066e-07 0.000000000000e+00 -4.545398725571e-08 -2.285313796465e-07 0.000000000000e+00 -4.512932625436e-08 -2.268971889774e-07 0.000000000000e+00 -4.481655461997e-08 -2.253227826337e-07 0.000000000000e+00 -4.451527430483e-08 -2.238061707798e-07 0.000000000000e+00 -4.422510413247e-08 -2.223454451295e-07 0.000000000000e+00 -4.394567832400e-08 -2.209387744841e-07 0.000000000000e+00 -4.367664521062e-08 -2.195844001634e-07 0.000000000000e+00 -4.341766627435e-08 -2.182806312645e-07 0.000000000000e+00 -4.316841568439e-08 -2.170258396527e-07 0.000000000000e+00 -4.292858057308e-08 -2.158184546135e-07 0.000000000000e+00 -4.269786224564e-08 -2.146569571950e-07 0.000000000000e+00 -4.247597782612e-08 -2.135398747068e-07 0.000000000000e+00 -4.226265907185e-08 -2.124657771053e-07 0.000000000000e+00 -4.205763529047e-08 -2.114332804700e-07 0.000000000000e+00 -4.186055594374e-08 -2.104410722780e-07 0.000000000000e+00 -4.167071129047e-08 -2.094879990051e-07 0.000000000000e+00 -4.148611479558e-08 -2.085733267865e-07 0.000000000000e+00 -4.130062768965e-08 -2.076974788115e-07 0.000000000000e+00 -4.109517895832e-08 -2.068640864811e-07 0.000000000000e+00 -2.547326264872e-08 -2.573797952091e-07 0.000000000000e+00 -2.511010508414e-08 -2.548067226916e-07 0.000000000000e+00 -2.483797715396e-08 -2.523183695879e-07 0.000000000000e+00 -2.459761933885e-08 -2.499200388983e-07 0.000000000000e+00 -2.437187164563e-08 -2.476093604535e-07 0.000000000000e+00 -2.415548336601e-08 -2.453827786348e-07 0.000000000000e+00 -2.394675731904e-08 -2.432368577196e-07 0.000000000000e+00 -2.374509696088e-08 -2.411684588966e-07 0.000000000000e+00 -2.355024673893e-08 -2.391747025366e-07 0.000000000000e+00 -2.336204819351e-08 -2.372529108485e-07 0.000000000000e+00 -2.318036184447e-08 -2.354005646513e-07 0.000000000000e+00 -2.300504453888e-08 -2.336152745216e-07 0.000000000000e+00 -2.283594540508e-08 -2.318947619667e-07 0.000000000000e+00 -2.267290777389e-08 -2.302368467967e-07 0.000000000000e+00 -2.251577257857e-08 -2.286394383022e-07 0.000000000000e+00 -2.236438184529e-08 -2.271005286757e-07 0.000000000000e+00 -2.221858181239e-08 -2.256181878923e-07 0.000000000000e+00 -2.207822564292e-08 -2.241905595486e-07 0.000000000000e+00 -2.194317574768e-08 -2.228158575011e-07 0.000000000000e+00 -2.181330564482e-08 -2.214923632883e-07 0.000000000000e+00 -2.168850096402e-08 -2.202184245931e-07 0.000000000000e+00 -2.156865852807e-08 -2.189924552210e-07 0.000000000000e+00 -2.145368097384e-08 -2.178129375027e-07 0.000000000000e+00 -2.134346083714e-08 -2.166784286866e-07 0.000000000000e+00 -2.123783967077e-08 -2.155875740330e-07 0.000000000000e+00 -2.113650686263e-08 -2.145391313284e-07 0.000000000000e+00 -2.103874941118e-08 -2.135320145596e-07 0.000000000000e+00 -2.094282332964e-08 -2.125653691811e-07 0.000000000000e+00 -2.084433908757e-08 -2.116386955974e-07 0.000000000000e+00 -2.073201632799e-08 -2.107520329010e-07 0.000000000000e+00 -2.057627936560e-08 -2.099061666130e-07 0.000000000000e+00 0.000000000000e+00 -2.587808566109e-07 0.000000000000e+00 0.000000000000e+00 -2.562680230366e-07 0.000000000000e+00 0.000000000000e+00 -2.537593010732e-07 0.000000000000e+00 0.000000000000e+00 -2.513198715659e-07 0.000000000000e+00 0.000000000000e+00 -2.489661047426e-07 0.000000000000e+00 0.000000000000e+00 -2.467001495489e-07 0.000000000000e+00 0.000000000000e+00 -2.445199162393e-07 0.000000000000e+00 0.000000000000e+00 -2.424221414214e-07 0.000000000000e+00 0.000000000000e+00 -2.404033718734e-07 0.000000000000e+00 0.000000000000e+00 -2.384602801339e-07 0.000000000000e+00 0.000000000000e+00 -2.365897543194e-07 0.000000000000e+00 0.000000000000e+00 -2.347889100152e-07 0.000000000000e+00 0.000000000000e+00 -2.330550767140e-07 0.000000000000e+00 0.000000000000e+00 -2.313857777329e-07 0.000000000000e+00 0.000000000000e+00 -2.297787105512e-07 0.000000000000e+00 0.000000000000e+00 -2.282317297097e-07 0.000000000000e+00 0.000000000000e+00 -2.267428329420e-07 0.000000000000e+00 0.000000000000e+00 -2.253101499853e-07 0.000000000000e+00 0.000000000000e+00 -2.239319337854e-07 0.000000000000e+00 0.000000000000e+00 -2.226065531252e-07 0.000000000000e+00 0.000000000000e+00 -2.213324856346e-07 0.000000000000e+00 0.000000000000e+00 -2.201083090196e-07 0.000000000000e+00 0.000000000000e+00 -2.189326870363e-07 0.000000000000e+00 0.000000000000e+00 -2.178043428640e-07 0.000000000000e+00 0.000000000000e+00 -2.167220041053e-07 0.000000000000e+00 0.000000000000e+00 -2.156842848717e-07 0.000000000000e+00 0.000000000000e+00 -2.146894233235e-07 0.000000000000e+00 0.000000000000e+00 -2.137346772149e-07 0.000000000000e+00 0.000000000000e+00 -2.128148780930e-07 0.000000000000e+00 0.000000000000e+00 -2.119188448847e-07 0.000000000000e+00 0.000000000000e+00 -2.110201875797e-07 0.000000000000e+00 
        </DataArray>
        <DataArray type="Float64" Name="NORMSTRESS_1" NumberOfComponents="3" format="ascii">
          9.999996303080e-01 8.598742799217e-04 3.010350826119e-09 9.999998234379e-01 5.942425823234e-04 2.140602419528e-09 9.999999022804e-01 4.420850633462e-04 1.638080628229e-09 9.999999420927e-01 3.403153466628e-04 1.296721349774e-09 9.999999636724e-01 2.695462512585e-04 1.055887076676e-09 9.999999758913e-01 2.195844273685e-04 8.840803483652e-10 9.999999830636e-01 1.840453944416e-04 7.613969802193e-10 9.999999874194e-01 1.586225368663e-04 6.741238344337e-10 9.999999901545e-01 1.403246638320e-04 6.124806246848e-10 9.999999919298e-01 1.270451489617e-04 5.693733096611e-10 9.999999931223e-01 1.172837015801e-04 5.395808017639e-10 9.999999939547e-01 1.099569635783e-04 5.191853089633e-10 9.999999945643e-01 1.042661608989e-04 5.051573659077e-10 9.999999950398e-01 9.960117991093e-05 4.950350726803e-10 9.999999954427e-01 9.547053297833e-05 4.866706724870e-10 9.999999958188e-01 9.144643220932e-05 4.780074521907e-10 9.999999962051e-01 8.711911017965e-05 4.668664155791e-10 9.999999966334e-01 8.205569887130e-05 4.507232011230e-10 9.999999971304e-01 7.575790885290e-05 4.264451001020e-10 9.999999977140e-01 6.761697047050e-05 3.899762425966e-10 9.999999983836e-01 5.685842788891e-05 3.359224928524e-10 9.999999990979e-01 4.247638760973e-05 2.570213532510e-10 9.999999997321e-01 2.314864226650e-05 1.434303702889e-10 9.999999999959e-01 -2.870229053314e-06 -1.820721473567e-11 9.999999992825e-01 -3.788205828801e-05 -2.459744101032e-10 9.999999963962e-01 -8.489816223518e-05 -5.641602893153e-10 9.999999890818e-01 -1.477715819392e-04 -1.004758413305e-09 9.999999732885e-01 -2.311341791924e-04 -1.607755579750e-09 9.999999423600e-01 -3.395289713471e-04 -2.415664156498e-09 9.999998878298e-01 -4.736459453167e-04 -3.446178531232e-09 9.999998130651e-01 -6.114489723480e-04 -4.571063018170e-09 9.951911650953e-01 9.795174789744e-02 3.379956793793e-07 9.951859328813e-01 9.800489271005e-02 3.479508932047e-07 9.951850184678e-01 9.801417763278e-02 3.579384472527e-07 9.951848105859e-01 9.801628833526e-02 3.680854480458e-07 9.951847599783e-01 9.801680216579e-02 3.784136629661e-07 9.951847453011e-01 9.801695118567e-02 3.889298595818e-07 9.951847392980e-01 9.801701213631e-02 3.996372797325e-07 9.951847357089e-01 9.801704857713e-02 4.105382610544e-07 9.951847330059e-01 9.801707602162e-02 4.216348636155e-07 9.951847308203e-01 9.801709821234e-02 4.329290290991e-07 9.951847289977e-01 9.801711671776e-02 4.444226366813e-07 9.951847275026e-01 9.801713189778e-02 4.561175184731e-07 9.951847262959e-01 9.801714414871e-02 4.680154732971e-07 9.951847253634e-01 9.801715361707e-02 4.801182695265e-07 9.951847246942e-01 9.801716041143e-02 4.924276469078e-07 9.951847242692e-01 9.801716472587e-02 5.049453156122e-07 9.951847240836e-01 9.801716661080e-02 5.176729500655e-07 9.951847241193e-01 9.801716624778e-02 5.306121820446e-07 9.951847243771e-01 9.801716363035e-02 5.437645853183e-07 9.951847248361e-01 9.801715897038e-02 5.571316602993e-07 9.951847254835e-01 9.801715239712e-02 5.707148057493e-07 9.951847263322e-01 9.801714378002e-02 5.845152833935e-07 9.951847275380e-01 9.801713153677e-02 5.985341613753e-07 9.951847295880e-01 9.801711072282e-02 6.127722391865e-07 9.951847344963e-01 9.801706088775e-02 6.272298862428e-07 9.951847493889e-01 9.801690968053e-02 6.419067005278e-07 9.951847994462e-01 9.801640143777e-02 6.568005261549e-07 9.951849716809e-01 9.801465267981e-02 6.719043901124e-07 9.951855642926e-01 9.800863545157e-02 6.871962688230e-07 9.951875882792e-01 9.798808159443e-02 7.026045126430e-07 9.951951323002e-01 9.791143266010e-02 7.284435262226e-07 9.808111583542e-01 1.949601796459e-01 6.564630485638e-07 9.807901282518e-01 1.950659486514e-01 6.757599820547e-07 9.807864532665e-01 1.950844255407e-01 6.951424008223e-07 9.807856176998e-01 1.950886263028e-01 7.148402244098e-07 9.807854141400e-01 1.950896496733e-01 7.348925272373e-07 9.807853550225e-01 1.950899468777e-01 7.553113768844e-07 9.807853308217e-01 1.950900685438e-01 7.761025740401e-07 9.807853163067e-01 1.950901415155e-01 7.972703665683e-07 9.807853054002e-01 1.950901963462e-01 8.188185568362e-07 9.807852965422e-01 1.950902408780e-01 8.407507767656e-07 9.807852892227e-01 1.950902776759e-01 8.630705703782e-07 9.807852831802e-01 1.950903080533e-01 8.857814219046e-07 9.807852782870e-01 1.950903326530e-01 9.088867645486e-07 9.807852745361e-01 1.950903515099e-01 9.323899830280e-07 9.807852718407e-01 1.950903650603e-01 9.562944144958e-07 9.807852700929e-01 1.950903738474e-01 9.806033412251e-07 9.807852693180e-01 1.950903777429e-01 1.005319970616e-06 9.807852694766e-01 1.950903769453e-01 1.030447420885e-06 9.807852705001e-01 1.950903717995e-01 1.055988688545e-06 9.807852723038e-01 1.950903627316e-01 1.081946607338e-06 9.807852749159e-01 1.950903495997e-01 1.108323785551e-06 9.807852784069e-01 1.950903320493e-01 1.135122528611e-06 9.807852832003e-01 1.950903079509e-01 1.162344723925e-06 9.807852915010e-01 1.950902662202e-01 1.189991656445e-06 9.807853113062e-01 1.950901666524e-01 1.218063703325e-06 9.807853713469e-01 1.950898648069e-01 1.246559653300e-06 9.807855725866e-01 1.950888531010e-01 1.275474884185e-06 9.807862649500e-01 1.950853722955e-01 1.304795727950e-06 9.807886468282e-01 1.950733970871e-01 1.334480931758e-06 9.807967818144e-01 1.950324916025e-01 1.364399166497e-06 9.808271059401e-01 1.948799329103e-01 1.428909384258e-06 9.569990459602e-01 2.900910650647e-01 9.431794840694e-07 9.569513342630e-01 2.902484174828e-01 9.708327553849e-07 9.569429985192e-01 2.902758990754e-01 9.986540406606e-07 9.569411031577e-01 2.902821473779e-01 1.026938983344e-06 9.569406412388e-01 2.902836701304e-01 1.055737462087e-06 9.569405069268e-01 2.902841128988e-01 1.085064866245e-06 9.569404519352e-01 2.902842941821e-01 1.114928701621e-06 9.569404189574e-01 2.902844028953e-01 1.145334609532e-06 9.569403942639e-01 2.902844842987e-01 1.176287746684e-06 9.569403741634e-01 2.902845505613e-01 1.207793118647e-06 9.569403575720e-01 2.902846052555e-01 1.239855658764e-06 9.569403439309e-01 2.902846502242e-01 1.272480255171e-06 9.569403329535e-01 2.902846864116e-01 1.305671749639e-06 9.569403244040e-01 2.902847145954e-01 1.339434933897e-06 9.569403182760e-01 2.902847347965e-01 1.373774535540e-06 9.569403143890e-01 2.902847476101e-01 1.408695206261e-06 9.569403126187e-01 2.902847534459e-01 1.444201492316e-06 9.569403129147e-01 2.902847524700e-01 1.480297795393e-06 9.569403152097e-01 2.902847449041e-01 1.516988324661e-06 9.569403193456e-01 2.902847312697e-01 1.554277027316e-06 9.569403251988e-01 2.902847119740e-01 1.592167490736e-06 9.569403330614e-01 2.902846860542e-01 1.630662803983e-06 9.569403440120e-01 2.902846499549e-01 1.669765379848e-06 9.569403629663e-01 2.902845874706e-01 1.709476669047e-06 9.569404079210e-01 2.902844392745e-01 1.749796698264e-06 9.569405443045e-01 2.902839896775e-01 1.790723101154e-06 9.569410010555e-01 2.902824839626e-01 1.832248684901e-06 9.569425717989e-01 2.902773058221e-01 1.874354086604e-06 9.569479747518e-01 2.902594935826e-01 1.916983961345e-06 9.569664296367e-01 2.901986432507e-01 1.959967145332e-06 9.570352353740e-01 2.899716507665e-01 2.074495407640e-06 9.239851874895e-01 3.824282590220e-01 1.187145112720e-06 9.238993264896e-01 3.826356419764e-01 1.221833063201e-06 9.238843313478e-01 3.826718467413e-01 1.256810285572e-06 9.238809219783e-01 3.826800778755e-01 1.292388087552e-06 9.238800909767e-01 3.826820841053e-01 1.328618624091e-06 9.238798495497e-01 3.826826669632e-01 1.365518132905e-06 9.238797507869e-01 3.826829053983e-01 1.403094832696e-06 9.238796917621e-01 3.826830478967e-01 1.441355166300e-06 9.238796477765e-01 3.826831540873e-01 1.480305203362e-06 9.238796121132e-01 3.826832401859e-01 1.519950950489e-06 9.238795826520e-01 3.826833113116e-01 1.560298405591e-06 9.238795584426e-01 3.826833697581e-01 1.601353559742e-06 9.238795390401e-01 3.826834165996e-01 1.643122382457e-06 9.238795239648e-01 3.826834529944e-01 1.685610804719e-06 9.238795130361e-01 3.826834793784e-01 1.728824690548e-06 9.238795060826e-01 3.826834961655e-01 1.772769807089e-06 9.238795029244e-01 3.826835037898e-01 1.817451786252e-06 9.238795034139e-01 3.826835026077e-01 1.862876063055e-06 9.238795072802e-01 3.826834932736e-01 1.909047807334e-06 9.238795144731e-01 3.826834759081e-01 1.955971813212e-06 9.238795248082e-01 3.826834509568e-01 2.003652370449e-06 9.238795386587e-01 3.826834175185e-01 2.052093065954e-06 9.238795580889e-01 3.826833706096e-01 2.101296527135e-06 9.238795919260e-01 3.826832889193e-01 2.151264034987e-06 9.238796728254e-01 3.826830936104e-01 2.201994921128e-06 9.238799181448e-01 3.826825013555e-01 2.253485407068e-06 9.238807399629e-01 3.826805172991e-01 2.305725860823e-06 9.238835656820e-01 3.826736952773e-01 2.358692954556e-06 9.238932861006e-01 3.826502265678e-01 2.412324767698e-06 9.239264930991e-01 3.825700397880e-01 2.466438143916e-06 9.240503373105e-01 3.822708125262e-01 2.640409169335e-06 8.820891410645e-01 4.710825269676e-01 1.379006962456e-06 8.819527194573e-01 4.713378837309e-01 1.419118959456e-06 8.819289083463e-01 4.713824356305e-01 1.459691007125e-06 8.819234959935e-01 4.713925616854e-01 1.500986490219e-06 8.819221774840e-01 4.713950284628e-01 1.543049249799e-06 8.819217952505e-01 4.713957435740e-01 1.585893432843e-06 8.819216397799e-01 4.713960344394e-01 1.629526846440e-06 8.819215476612e-01 4.713962067816e-01 1.673956096380e-06 8.819214793655e-01 4.713963345538e-01 1.719187686995e-06 8.819214243660e-01 4.713964374507e-01 1.765228215360e-06 8.819213790605e-01 4.713965222111e-01 1.812084376000e-06 8.819213418619e-01 4.713965918047e-01 1.859762923223e-06 8.819213120484e-01 4.713966475816e-01 1.908270631167e-06 8.819212889592e-01 4.713966907783e-01 1.957614259088e-06 8.819212722186e-01 4.713967220975e-01 2.007800504897e-06 8.819212614109e-01 4.713967423171e-01 2.058835960655e-06 8.819212563720e-01 4.713967517439e-01 2.110727046491e-06 8.819212568829e-01 4.713967507879e-01 2.163479941682e-06 8.819212625413e-01 4.713967402016e-01 2.217100478941e-06 8.819212732297e-01 4.713967202047e-01 2.271594007256e-06 8.819212887264e-01 4.713966912120e-01 2.326965213586e-06 8.819213096943e-01 4.713966519837e-01 2.383217869277e-06 8.819213394764e-01 4.713965962650e-01 2.440354492567e-06 8.819213921054e-01 4.713964978027e-01 2.498375867085e-06 8.819215197513e-01 4.713962589935e-01 2.557280319850e-06 8.819219084809e-01 4.713955317295e-01 2.617062486860e-06 8.819232128430e-01 4.713930914232e-01 2.677710688260e-06 8.819276993364e-01 4.713846976045e-01 2.739200127609e-06 8.819431364952e-01 4.713558146253e-01 2.801472300390e-06 8.819958876108e-01 4.712570999247e-01 2.864368154141e-06 8.821927115948e-01 4.708885426503e-01 3.104921346808e-06 8.317167993064e-01 5.552001132467e-01 1.511420706706e-06 8.315159385332e-01 5.555008946552e-01 1.555113565828e-06 8.314809103721e-01 5.555533238890e-01 1.599500291266e-06 8.314729519814e-01 5.555652348020e-01 1.644717746475e-06 8.314710153363e-01 5.555681332229e-01 1.690788656153e-06 8.314704559354e-01 5.555689704291e-01 1.737721659180e-06 8.314702307595e-01 5.555693074294e-01 1.785522919969e-06 8.314700989488e-01 5.555695046984e-01 1.834198540643e-06 8.314700022799e-01 5.555696493735e-01 1.883754961318e-06 8.314699248721e-01 5.555697652226e-01 1.934198941083e-06 8.314698615058e-01 5.555698600568e-01 1.985537475248e-06 8.314698097021e-01 5.555699375864e-01 2.037777711611e-06 8.314697682271e-01 5.555699996579e-01 2.090926880076e-06 8.314697360860e-01 5.555700477604e-01 2.144992225104e-06 8.314697126751e-01 5.555700827970e-01 2.199980945860e-06 8.314696974667e-01 5.555701055578e-01 2.255900128111e-06 8.314696901870e-01 5.555701164524e-01 2.312756662710e-06 8.314696903900e-01 5.555701161484e-01 2.370557146636e-06 8.314696976668e-01 5.555701052577e-01 2.429307756915e-06 8.314697117654e-01 5.555700841573e-01 2.489014076486e-06 8.314697326480e-01 5.555700529039e-01 2.549680866156e-06 8.314697612204e-01 5.555700101421e-01 2.611311757247e-06 8.314698025232e-01 5.555699483278e-01 2.673908835412e-06 8.314698775035e-01 5.555698361113e-01 2.737472069933e-06 8.314700628590e-01 5.555695587066e-01 2.801998520187e-06 8.314706327942e-01 5.555687057355e-01 2.867481161069e-06 8.314725495730e-01 5.555658370508e-01 2.933906942916e-06 8.314791480940e-01 5.555559614258e-01 3.001252915775e-06 8.315018608791e-01 5.555219665730e-01 3.069476649769e-06 8.315795069406e-01 5.554057288384e-01 3.138488268042e-06 8.318694100180e-01 5.549714268901e-01 3.450201786805e-06 7.733568436805e-01 6.339709712045e-01 1.579336877481e-06 7.730753919433e-01 6.343141480127e-01 1.624596757164e-06 7.730263676466e-01 6.343738920545e-01 1.670866047860e-06 7.730152345960e-01 6.343874581669e-01 1.718058026345e-06 7.730125281413e-01 6.343907560278e-01 1.766158875622e-06 7.730117494874e-01 6.343917048253e-01 1.815167773049e-06 7.730114394849e-01 6.343920825657e-01 1.865087920498e-06 7.730112606584e-01 6.343923004668e-01 1.915924237298e-06 7.730111314890e-01 6.343924578604e-01 1.967682597727e-06 7.730110289282e-01 6.343925828313e-01 2.020369492197e-06 7.730109456242e-01 6.343926843374e-01 2.073991816348e-06 7.730108778786e-01 6.343927668856e-01 2.128556730008e-06 7.730108238244e-01 6.343928327507e-01 2.184071546760e-06 7.730107819092e-01 6.343928838244e-01 2.240543640814e-06 7.730107512135e-01 6.343929212271e-01 2.297980359701e-06 7.730107312043e-01 6.343929456082e-01 2.356388935151e-06 7.730107213067e-01 6.343929576683e-01 2.415776384401e-06 7.730107207515e-01 6.343929583445e-01 2.476149387062e-06 7.730107293197e-01 6.343929479039e-01 2.537514124866e-06 7.730107466035e-01 6.343929268432e-01 2.599876079902e-06 7.730107729050e-01 6.343928947945e-01 2.663239756405e-06 7.730108093939e-01 6.343928503324e-01 2.727608320903e-06 7.730108635357e-01 6.343927843600e-01 2.792983110276e-06 7.730109649257e-01 6.343926608155e-01 2.859362982969e-06 7.730112213323e-01 6.343923483821e-01 2.926743515537e-06 7.730120167564e-01 6.343913791511e-01 2.995116069957e-06 7.730146975544e-01 6.343881125585e-01 3.064467209866e-06 7.730239311668e-01 6.343768610483e-01 3.134780089316e-06 7.730557275314e-01 6.343381134069e-01 3.206044104776e-06 7.731644843886e-01 6.342055503299e-01 3.278294268620e-06 7.735709207952e-01 6.337097367775e-01 3.663006515519e-06 7.075766698922e-01 7.066365800196e-01 1.580202269308e-06 7.071949034252e-01 7.070186479625e-01 1.624906587601e-06 7.071285101548e-01 7.070850515486e-01 1.671046431720e-06 7.071134362036e-01 7.071001261047e-01 1.718188231761e-06 7.071097703922e-01 7.071037919661e-01 1.766262710845e-06 7.071087165180e-01 7.071048458475e-01 1.815254939467e-06 7.071082996198e-01 7.071052627476e-01 1.865163722957e-06 7.071080625297e-01 7.071054998384e-01 1.915992127519e-06 7.071078935286e-01 7.071056688401e-01 1.967744984941e-06 7.071077611807e-01 7.071058011881e-01 2.020428101693e-06 7.071076545058e-01 7.071059078631e-01 2.074047881591e-06 7.071075685670e-01 7.071059938020e-01 2.128611121274e-06 7.071075000174e-01 7.071060623516e-01 2.184124846173e-06 7.071074472270e-01 7.071061151419e-01 2.240596198463e-06 7.071074084249e-01 7.071061539439e-01 2.298032316230e-06 7.071073829272e-01 7.071061794414e-01 2.356440227309e-06 7.071073697288e-01 7.071061926396e-01 2.415826724051e-06 7.071073683357e-01 7.071061940326e-01 2.476198221273e-06 7.071073783192e-01 7.071061840488e-01 2.537560566414e-06 7.071073993977e-01 7.071061629700e-01 2.599918803541e-06 7.071074319007e-01 7.071061304668e-01 2.663276855232e-06 7.071074780367e-01 7.071060843305e-01 2.727637097889e-06 7.071075492023e-01 7.071060131645e-01 2.792999815802e-06 7.071076849269e-01 7.071058774393e-01 2.859362491659e-06 7.071080328074e-01 7.071055295574e-01 2.926719056646e-06 7.071091122526e-01 7.071044501065e-01 2.995059441293e-06 7.071127470733e-01 7.071008152428e-01 3.064371173516e-06 7.071252569573e-01 7.070883049261e-01 3.134648936864e-06 7.071683389807e-01 7.070452180257e-01 3.205933702276e-06 7.073157818263e-01 7.068977187463e-01 3.278455340922e-06 7.078675039790e-01 7.063452390981e-01 3.735189860202e-06 6.350180687470e-01 7.724972830778e-01 1.514073007348e-06 6.345104987272e-01 7.729142429807e-01 1.556042977596e-06 6.344224118790e-01 7.729865479445e-01 1.600035054389e-06 6.344024013452e-01 7.730029709935e-01 1.645102010596e-06 6.343975192345e-01 7.730069777086e-01 1.691094773403e-06 6.343961062531e-01 7.730081373232e-01 1.737978692150e-06 6.343955437103e-01 7.730085989931e-01 1.785746576409e-06 6.343952257388e-01 7.730088599470e-01 1.834398973183e-06 6.343950010795e-01 7.730090443208e-01 1.883939236780e-06 6.343948279125e-01 7.730091864358e-01 1.934372115940e-06 6.343946896351e-01 7.730092999174e-01 1.985703160922e-06 6.343945796182e-01 7.730093902062e-01 2.037938451690e-06 6.343944918310e-01 7.730094622513e-01 2.091084377260e-06 6.343944247505e-01 7.730095173029e-01 2.145147495153e-06 6.343943752551e-01 7.730095579227e-01 2.200134385235e-06 6.343943428858e-01 7.730095844874e-01 2.256051526284e-06 6.343943256520e-01 7.730095986307e-01 2.312905144253e-06 6.343943237499e-01 7.730096001915e-01 2.370701048203e-06 6.343943363826e-01 7.730095898239e-01 2.429444420705e-06 6.343943637659e-01 7.730095673508e-01 2.489139535488e-06 6.343944070858e-01 7.730095317988e-01 2.549789411666e-06 6.343944700389e-01 7.730094801341e-01 2.611395322524e-06 6.343945692558e-01 7.730093987084e-01 2.673956211421e-06 6.343947581147e-01 7.730092437152e-01 2.737467936812e-06 6.343952339961e-01 7.730088531674e-01 2.801922686322e-06 6.343966855179e-01 7.730076619256e-01 2.867309309231e-06 6.344015332788e-01 7.730036834096e-01 2.933618125272e-06 6.344181588452e-01 7.729900385635e-01 3.000862359849e-06 6.344753696418e-01 7.729430802514e-01 3.069160077599e-06 6.346712628378e-01 7.727822384851e-01 3.139028246593e-06 6.354056408439e-01 7.721785231216e-01 3.664022984445e-06 5.563932421289e-01 8.309191056363e-01 1.383646572521e-06 5.557247113002e-01 8.313663724546e-01 1.420670113878e-06 5.556090346182e-01 8.314436845924e-01 1.460560520140e-06 5.555826936673e-01 8.314612862275e-01 1.501605350652e-06 5.555762153906e-01 8.314656149775e-01 1.543541172625e-06 5.555743073446e-01 8.314668899097e-01 1.586306661273e-06 5.555735282167e-01 8.314674105112e-01 1.629886924622e-06 5.555730820291e-01 8.314677086465e-01 1.674279303833e-06 5.555727673512e-01 8.314679189089e-01 1.719485256363e-06 5.555725281993e-01 8.314680787061e-01 1.765508138191e-06 5.555723391214e-01 8.314682050445e-01 1.812352347014e-06 5.555721902449e-01 8.314683045210e-01 1.860022940899e-06 5.555720725582e-01 8.314683831570e-01 1.908525364091e-06 5.555719827568e-01 8.314684431606e-01 1.957865274427e-06 5.555719163340e-01 8.314684875429e-01 2.008048375319e-06 5.555718727936e-01 8.314685166357e-01 2.059080269530e-06 5.555718496705e-01 8.314685320860e-01 2.110966295488e-06 5.555718474740e-01 8.314685335535e-01 2.163711333195e-06 5.555718661899e-01 8.314685210477e-01 2.217319574725e-06 5.555719070054e-01 8.314684937754e-01 2.271794201336e-06 5.555719735457e-01 8.314684493143e-01 2.327137000985e-06 5.555720722079e-01 8.314683833898e-01 2.383347835954e-06 5.555722271446e-01 8.314682798638e-01 2.440424014795e-06 5.555725100712e-01 8.314680908171e-01 2.498359588070e-06 5.555731825137e-01 8.314676415021e-01 2.557145006857e-06 5.555751514140e-01 8.314663259113e-01 2.616768620774e-06 5.555815991086e-01 8.314620176080e-01 2.677225890766e-06 5.556035318865e-01 8.314473617420e-01 2.738557634275e-06 5.556787965458e-01 8.313970622161e-01 2.800994181850e-06 5.559365477841e-01 8.312247318444e-01 2.865473999960e-06 5.569055978608e-01 8.305757972993e-01 3.452308693637e-06 4.724824650480e-01 8.813400706996e-01 1.194248646836e-06 4.716007344594e-01 8.818121950029e-01 1.224019374039e-06 4.714489188810e-01 8.818933704731e-01 1.257976712090e-06 4.714140944722e-01 8.819119862726e-01 1.293206234243e-06 4.714053683865e-01 8.819166506279e-01 1.329267783024e-06 4.714027220052e-01 8.819180651762e-01 1.366063977434e-06 4.714016023130e-01 8.819186636730e-01 1.403571463664e-06 4.714009392425e-01 8.819190180959e-01 1.441784205434e-06 4.714004628002e-01 8.819192727623e-01 1.480701418292e-06 4.714000978704e-01 8.819194678232e-01 1.520324662128e-06 4.713998118635e-01 8.819196206983e-01 1.560656857916e-06 4.713995881535e-01 8.819197402747e-01 1.601701755308e-06 4.713994132377e-01 8.819198337697e-01 1.643463612785e-06 4.713992796561e-01 8.819199051710e-01 1.685946932193e-06 4.713991810529e-01 8.819199578758e-01 1.729156286111e-06 4.713991150304e-01 8.819199931657e-01 1.773096116790e-06 4.713990802393e-01 8.819200117620e-01 1.817770578598e-06 4.713990782016e-01 8.819200128511e-01 1.863183295601e-06 4.713991118326e-01 8.819199948747e-01 1.909337132544e-06 4.713991849720e-01 8.819199557805e-01 1.956233838383e-06 4.713993042708e-01 8.819198920135e-01 2.003873648004e-06 4.713994808727e-01 8.819197976170e-01 2.052254761723e-06 4.713997459939e-01 8.819196559055e-01 2.101372718009e-06 4.714002000828e-01 8.819194131876e-01 2.151219765506e-06 4.714011975996e-01 8.819188799980e-01 2.201784691292e-06 4.714039589312e-01 8.819174040118e-01 2.253055528757e-06 4.714126876315e-01 8.819127382767e-01 2.305034500814e-06 4.714418175314e-01 8.818971667247e-01 2.357801521293e-06 4.715409580956e-01 8.818441613077e-01 2.411756917054e-06 4.718802753075e-01 8.816626371632e-01 2.468496773300e-06 4.731625235089e-01 8.809751564811e-01 3.108293236075e-06 3.841367025556e-01 9.232762283027e-01 9.539103076320e-07 3.829570622377e-01 9.237661438272e-01 9.737220672298e-07 3.827563298174e-01 9.238493340279e-01 1.000027932453e-06 3.827093333118e-01 9.238688035620e-01 1.027879414746e-06 3.826967878228e-01 9.238740003859e-01 1.056493393063e-06 3.826926917397e-01 9.238756970978e-01 1.085708113114e-06 3.826909348818e-01 9.238764248308e-01 1.115493348916e-06 3.826899196391e-01 9.238768453670e-01 1.145843980816e-06 3.826891867693e-01 9.238771489373e-01 1.176759210703e-06 3.826885989014e-01 9.238773924442e-01 1.208239338722e-06 3.826881159533e-01 9.238775924908e-01 1.240285515625e-06 3.826877224461e-01 9.238777554890e-01 1.272899668533e-06 3.826874118139e-01 9.238778841587e-01 1.306084338214e-06 3.826871755658e-01 9.238779820169e-01 1.339842432357e-06 3.826870092029e-01 9.238780509274e-01 1.374176998052e-06 3.826869070701e-01 9.238780932326e-01 1.409090987231e-06 3.826868683308e-01 9.238781092791e-01 1.444587054042e-06 3.826868911078e-01 9.238780998444e-01 1.480667318556e-06 3.826869762425e-01 9.238780645800e-01 1.517333134430e-06 3.826871232836e-01 9.238780036728e-01 1.554584775869e-06 3.826873350359e-01 9.238779159611e-01 1.592421026395e-06 3.826876291428e-01 9.238777941364e-01 1.630838566417e-06 3.826880690656e-01 9.238776119119e-01 1.669831012423e-06 3.826888533337e-01 9.238772870523e-01 1.709387593690e-06 3.826905618801e-01 9.238765793356e-01 1.749492127827e-06 3.826949432587e-01 9.238747644573e-01 1.790126667016e-06 3.827075737430e-01 9.238695324538e-01 1.831297718330e-06 3.827472482472e-01 9.238530965233e-01 1.873151342717e-06 3.828791924734e-01 9.237984217172e-01 1.916404255995e-06 3.833310951867e-01 9.236109957439e-01 1.963836456919e-06 3.850578316532e-01 9.228924456704e-01 2.645391011498e-06 2.922950580384e-01 9.563281858472e-01 6.740376722005e-07 2.906620915921e-01 9.568257670605e-01 6.798843825210e-07 2.903959952881e-01 9.569065607050e-01 6.964952115238e-07 2.903324946283e-01 9.569258291855e-01 7.155831836773e-07 2.903115994095e-01 9.569321685719e-01 7.355208149307e-07 2.903020474669e-01 9.569350663634e-01 7.559117850975e-07 2.902970437247e-01 9.569365843169e-01 7.766776994576e-07 2.902943837292e-01 9.569373912512e-01 7.978152909223e-07 2.902929657636e-01 9.569378214009e-01 8.193340416337e-07 2.902921664388e-01 9.569380638806e-01 8.412421731916e-07 2.902916584341e-01 9.569382179863e-01 8.635449025872e-07 2.902912910533e-01 9.569383294329e-01 8.862452595412e-07 2.902910101413e-01 9.569384146487e-01 9.093450751755e-07 2.902908012226e-01 9.569384780249e-01 9.328456519389e-07 2.902906624954e-01 9.569385201083e-01 9.567481138773e-07 2.902905883585e-01 9.569385425980e-01 9.810535233801e-07 2.902905695198e-01 9.569385483127e-01 1.005762808438e-06 2.902905931690e-01 9.569385411386e-01 1.030876527692e-06 2.902906594827e-01 9.569385210221e-01 1.056394375703e-06 2.902908010292e-01 9.569384780834e-01 1.082314379792e-06 2.902911165755e-01 9.569383823612e-01 1.108631566510e-06 2.902918166396e-01 9.569381699937e-01 1.135335964932e-06 2.902932750808e-01 9.569377275672e-01 1.162409872678e-06 2.902961008715e-01 9.569368703407e-01 1.189825170526e-06 2.903012899952e-01 9.569352961542e-01 1.217544287403e-06 2.903109120389e-01 9.569323771038e-01 1.245537604112e-06 2.903311885068e-01 9.569262254629e-01 1.273858225704e-06 2.903851724680e-01 9.569098450789e-01 1.302899184954e-06 2.905604878552e-01 9.568566260917e-01 1.334208125568e-06 2.911785764214e-01 9.566687183301e-01 1.372961182081e-06 2.936043285716e-01 9.559270360439e-01 2.081759307830e-06 1.980708011783e-01 9.801877155527e-01 3.712925335438e-07 1.956007256854e-01 9.806836167242e-01 3.575834658333e-07 1.952534569410e-01 9.807528167446e-01 3.600760739247e-07 1.952007113647e-01 9.807633161383e-01 3.677268119338e-07 1.951822630644e-01 9.807669877116e-01 3.774276191764e-07 1.951610298008e-01 9.807712131007e-01 3.880162529900e-07 1.951388549498e-01 9.807756253541e-01 3.990348128084e-07 1.951199874859e-01 9.807793791079e-01 4.102995821277e-07 1.951061406650e-01 9.807821337456e-01 4.217392647495e-07 1.950971818050e-01 9.807839158813e-01 4.333299502718e-07 1.950921745959e-01 9.807849119003e-01 4.450675346096e-07 1.950900092597e-01 9.807853426142e-01 4.569554747040e-07 1.950897012778e-01 9.807854038754e-01 4.689992111620e-07 1.950905046149e-01 9.807852440819e-01 4.812034803319e-07 1.950919363797e-01 9.807849592848e-01 4.935709521002e-07 1.950937682353e-01 9.807845949012e-01 5.061013767734e-07 1.950960107857e-01 9.807841488193e-01 5.187909491752e-07 1.950988943893e-01 9.807835752131e-01 5.316317132171e-07 1.951028431149e-01 9.807827897186e-01 5.446110334283e-07 1.951084293837e-01 9.807816784499e-01 5.577112687269e-07 1.951162787925e-01 9.807801169222e-01 5.709101714904e-07 1.951268893954e-01 9.807780059904e-01 5.841830630610e-07 1.951403106313e-01 9.807753357249e-01 5.975092118932e-07 1.951556746930e-01 9.807722786839e-01 6.108877530427e-07 1.951707833458e-01 9.807692722184e-01 6.243753644930e-07 1.951828091202e-01 9.807668790409e-01 6.381741468443e-07 1.951940572911e-01 9.807646404708e-01 6.528383935407e-07 1.952359865410e-01 9.807562946823e-01 6.697705644353e-07 1.954536441309e-01 9.807129411787e-01 6.924383039376e-07 1.963817591931e-01 9.805275134619e-01 7.294013505522e-07 2.001496829389e-01 9.797653313000e-01 1.439789998511e-06 1.051479951997e-01 9.944565848269e-01 -2.630085668341e-08 9.869699357450e-02 9.951175324852e-01 1.003265448708e-08 9.734070673828e-02 9.952511174632e-01 1.709582131449e-08 9.719982792551e-02 9.952648860737e-01 1.704874578614e-08 9.736859623418e-02 9.952483893317e-01 1.507832862308e-08 9.758115054370e-02 9.952275714924e-01 1.280017025665e-08 9.776501501827e-02 9.952095266015e-01 1.071403133873e-08 9.790693213490e-02 9.951955750705e-01 8.949897586033e-09 9.801085485007e-02 9.951853457179e-01 7.513686936028e-09 9.808452571073e-02 9.951780874879e-01 6.373085709998e-09 9.813531540719e-02 9.951730803584e-01 5.488590019671e-09 9.816912043305e-02 9.951697462209e-01 4.824709575262e-09 9.819026361271e-02 9.951676603124e-01 4.353790740917e-09 9.820166419073e-02 9.951665353850e-01 4.057131820633e-09 9.820504576662e-02 9.951662016899e-01 3.925266408070e-09 9.820109104932e-02 9.951665919416e-01 3.958146156136e-09 9.818953049467e-02 9.951677326467e-01 4.165578378445e-09 9.816916613062e-02 9.951697417131e-01 4.567993605550e-09 9.813783963251e-02 9.951728314380e-01 5.197595499576e-09 9.809237067072e-02 9.951773142592e-01 6.099736448724e-09 9.802852343283e-02 9.951836054686e-01 7.334208165247e-09 9.794112472715e-02 9.951922106242e-01 8.975446193160e-09 9.782461371244e-02 9.952036700857e-01 1.110955911336e-08 9.767469145820e-02 9.952183954533e-01 1.382304153567e-08 9.749267273013e-02 9.952362426901e-01 1.717064906687e-08 9.729650505004e-02 9.952554396260e-01 2.109183472824e-08 9.714857813764e-02 9.952698899122e-01 2.519726319027e-08 9.722689593519e-02 9.952622421788e-01 2.822198855716e-08 9.801149023031e-02 9.951852831422e-01 2.661145452895e-08 1.007850382496e-01 9.949082249459e-01 1.088211128266e-08 1.094828005655e-01 9.939886902675e-01 7.528434839968e-07 -7.549644616426e-03 9.999715010269e-01 4.013076797423e-07 2.786274327750e-03 9.999961183302e-01 1.127830853826e-08 4.609106947053e-03 9.999893780102e-01 1.741449549004e-08 4.467982829681e-03 9.999900185149e-01 1.708594175572e-08 3.843745208674e-03 9.999926127841e-01 1.504665989632e-08 3.175229765813e-03 9.999949589453e-01 1.276191635471e-08 2.587005902402e-03 9.999966536946e-01 1.068444534526e-08 2.104037798618e-03 9.999977865100e-01 8.930447095607e-09 1.720188951297e-03 9.999985204739e-01 7.502416914862e-09 1.421193204262e-03 9.999989901044e-01 6.367719105336e-09 1.192437597533e-03 9.999992890460e-01 5.487313999302e-09 1.021429196839e-03 9.999994783411e-01 4.826279424499e-09 8.983746771587e-04 9.999995964614e-01 4.357442719865e-09 8.161173541815e-04 9.999996669762e-01 4.062489832296e-09 7.699046142607e-04 9.999997036234e-01 3.932265999998e-09 7.571548173450e-04 9.999997133583e-01 3.967008910031e-09 7.772917498184e-04 9.999996979087e-01 4.176825820079e-09 8.316506350314e-04 9.999996541786e-01 4.582508512416e-09 9.234542335003e-04 9.999995736160e-01 5.216741634513e-09 1.057820806205e-03 9.999994405074e-01 6.125538078136e-09 1.241746065520e-03 9.999992290331e-01 7.369594844189e-09 1.483897267646e-03 9.999988990238e-01 9.024521888504e-09 1.793911460386e-03 9.999983909395e-01 1.117777457366e-08 2.180465143529e-03 9.999976227831e-01 1.391681132536e-08 2.646379732587e-03 9.999964983310e-01 1.729520972916e-08 3.176623960038e-03 9.999949545174e-01 2.124411031461e-08 3.708795925670e-03 9.999931223927e-01 2.534572131688e-08 4.059678666447e-03 9.999917594706e-01 2.825652471275e-08 3.740302412358e-03 9.999930050445e-01 2.624741181220e-08 1.493602320227e-03 9.999988845754e-01 9.664829413798e-09 -6.187588357285e-03 9.999808566916e-01 7.829274144952e-07 
        </DataArray>
        <DataArray type="Float64" Name="NORMSTRESS_2" NumberOfComponents="3" format="ascii">
          -1.582907041960e-06 1.837357097332e-03 9.999983120568e-01 -1.137149747375e-06 1.910009450424e-03 9.999981759296e-01 -8.682029647727e-07 1.960176613731e-03 9.999980788516e-01 -6.850099233771e-07 2.009057692173e-03 9.999979818413e-01 -5.562687073312e-07 2.059805319846e-03 9.999978785986e-01 -4.648097894849e-07 2.112744084193e-03 9.999977681536e-01 -3.997130187228e-07 2.167680522363e-03 9.999976505777e-01 -3.535112863770e-07 2.224382277155e-03 9.999975260586e-01 -3.209262953411e-07 2.282662251989e-03 9.999973947231e-01 -2.981576227678e-07 2.342381830759e-03 9.999972566199e-01 -2.824239229908e-07 2.403440017729e-03 9.999971117338e-01 -2.716469644783e-07 2.465762697352e-03 9.999969600025e-01 -2.642249561966e-07 2.529294228700e-03 9.999968013302e-01 -2.588595769171e-07 2.593990778593e-03 9.999966356002e-01 -2.544205932234e-07 2.659814658944e-03 9.999964626867e-01 -2.498277036185e-07 2.726729636952e-03 9.999962824658e-01 -2.439383611671e-07 2.794696767988e-03 9.999960948273e-01 -2.354310708019e-07 2.863668847971e-03 9.999958996919e-01 -2.226687334679e-07 2.933585323683e-03 9.999956970293e-01 -2.035360601719e-07 3.004365380620e-03 9.999954868841e-01 -1.752266942412e-07 3.075898851723e-03 9.999952694119e-01 -1.339741928400e-07 3.148035418362e-03 9.999950449242e-01 -7.469525680334e-08 3.220570187167e-03 9.999948139504e-01 9.470524333415e-09 3.293227488746e-03 9.999945773117e-01 1.277436384573e-07 3.365647779203e-03 9.999943361915e-01 2.923931132454e-07 3.437400145681e-03 9.999940921226e-01 5.194026769393e-07 3.508102926387e-03 9.999938465879e-01 8.285919751564e-07 3.577939924871e-03 9.999935991521e-01 1.241547603262e-06 3.649561563816e-03 9.999933403272e-01 1.772426541955e-06 3.734815437855e-03 9.999930255509e-01 2.392488992682e-06 3.905342269385e-03 9.999923741189e-01 -1.768873780662e-04 1.793727672139e-03 9.999983756246e-01 -1.839591259743e-04 1.864453692662e-03 9.999982449842e-01 -1.887956928645e-04 1.913281443904e-03 9.999981518534e-01 -1.935003257214e-04 1.960903677667e-03 9.999980587053e-01 -1.983847595162e-04 2.010380588201e-03 9.999979595046e-01 -2.034812682345e-04 2.062016035308e-03 9.999978533403e-01 -2.087710112553e-04 2.115613233997e-03 9.999977402951e-01 -2.142313249246e-04 2.170940772860e-03 9.999976205577e-01 -2.198439917642e-04 2.227813349498e-03 9.999974942550e-01 -2.255955323708e-04 2.286094011725e-03 9.999973614369e-01 -2.314761535432e-04 2.345683278904e-03 9.999972220905e-01 -2.374786777014e-04 2.406508254262e-03 9.999970761567e-01 -2.435977111043e-04 2.468514151474e-03 9.999969235443e-01 -2.498290121437e-04 2.531657888083e-03 9.999967641417e-01 -2.561689453121e-04 2.595902536617e-03 9.999965978280e-01 -2.626140099190e-04 2.661212536293e-03 9.999964244845e-01 -2.691604314922e-04 2.727549550628e-03 9.999962440060e-01 -2.758036625538e-04 2.794867391368e-03 9.999960563165e-01 -2.825378654510e-04 2.863106776670e-03 9.999958613874e-01 -2.893552283434e-04 2.932188374728e-03 9.999956592630e-01 -2.962451456941e-04 3.002004491950e-03 9.999954500936e-01 -3.031931470225e-04 3.072408202626e-03 9.999952341795e-01 -3.101794998026e-04 3.143199203982e-03 9.999950120313e-01 -3.171777206100e-04 3.214108768869e-03 9.999947844380e-01 -3.241533241928e-04 3.284787469523e-03 9.999945525331e-01 -3.310650093724e-04 3.354818534908e-03 9.999943177781e-01 -3.378760999089e-04 3.423838838846e-03 9.999940815662e-01 -3.446033128110e-04 3.492050713740e-03 9.999938433962e-01 -3.514959919580e-04 3.562099845877e-03 9.999935939271e-01 -3.596694198595e-04 3.645708099566e-03 9.999932897027e-01 -3.795917895449e-04 3.850821634408e-03 9.999925135134e-01 -3.382860930623e-04 1.698492037343e-03 9.999985003425e-01 -3.519439978302e-04 1.766107525505e-03 9.999983784985e-01 -3.612215529052e-04 1.812477154563e-03 9.999982922213e-01 -3.702278468348e-04 1.857613718305e-03 9.999982060997e-01 -3.795743822508e-04 1.904489178044e-03 9.999981144204e-01 -3.893261783060e-04 1.953407185917e-03 9.999980163108e-01 -3.994478569165e-04 2.004184531058e-03 9.999979118407e-01 -4.098961746930e-04 2.056602540851e-03 9.999978011831e-01 -4.206363007601e-04 2.110485784288e-03 9.999976844547e-01 -4.316424365651e-04 2.165704468447e-03 9.999975617015e-01 -4.428958103457e-04 2.222164180887e-03 9.999974329115e-01 -4.543826973174e-04 2.279795894886e-03 9.999972980299e-01 -4.660927929614e-04 2.338547785877e-03 9.999971569718e-01 -4.780179561099e-04 2.398378912644e-03 9.999970096342e-01 -4.901512173227e-04 2.459254219801e-03 9.999968559053e-01 -5.024858954728e-04 2.521140099884e-03 9.999966956748e-01 -5.150147469276e-04 2.584000126604e-03 9.999965288456e-01 -5.277290559130e-04 2.647790468896e-03 9.999963553472e-01 -5.406176264245e-04 2.712454825111e-03 9.999961751534e-01 -5.536654771881e-04 2.777917863057e-03 9.999959883054e-01 -5.668522468315e-04 2.844077212219e-03 9.999957949428e-01 -5.801501544185e-04 2.910793206538e-03 9.999955953447e-01 -5.935213591482e-04 2.977875636437e-03 9.999953899839e-01 -6.069150497013e-04 3.045069236549e-03 9.999951795921e-01 -6.202650809022e-04 3.112042156262e-03 9.999949652197e-01 -6.334925550961e-04 3.178400263913e-03 9.999947482157e-01 -6.465284147686e-04 3.243805391780e-03 9.999945298488e-01 -6.594094374023e-04 3.308474250453e-03 9.999943095725e-01 -6.726309444874e-04 3.375008231056e-03 9.999940784260e-01 -6.883928830869e-04 3.454855794123e-03 9.999937950241e-01 -7.343620664123e-04 3.688698524772e-03 9.999929270828e-01 -4.734981626954e-04 1.558800549855e-03 9.999986729693e-01 -4.929565330139e-04 1.621936769625e-03 9.999985631565e-01 -5.060178421142e-04 1.664732002027e-03 9.999984863055e-01 -5.186508929987e-04 1.706241409689e-03 9.999984098695e-01 -5.317502175481e-04 1.749315275757e-03 9.999983285675e-01 -5.454152994795e-04 1.794259165650e-03 9.999982415766e-01 -5.595984555740e-04 1.840910731485e-03 9.999981489469e-01 -5.742395520834e-04 1.889070510527e-03 9.999980508289e-01 -5.892899424234e-04 1.938577826044e-03 9.999979473246e-01 -6.047135305600e-04 1.989313590996e-03 9.999978384742e-01 -6.204840352072e-04 2.041191130891e-03 9.999977242666e-01 -6.365822365155e-04 2.094147061082e-03 9.999976046527e-01 -6.529937825340e-04 2.148134050488e-03 9.999974795564e-01 -6.697072485782e-04 2.203114418955e-03 9.999973488860e-01 -6.867128647181e-04 2.259055947537e-03 9.999972125419e-01 -7.040013215541e-04 2.315927930881e-03 9.999970704257e-01 -7.215624650627e-04 2.373696880955e-03 9.999969224506e-01 -7.393840668942e-04 2.432322474116e-03 9.999967685541e-01 -7.574503948719e-04 2.491752836282e-03 9.999966087126e-01 -7.757404536928e-04 2.551918741118e-03 9.999964429624e-01 -7.942256136920e-04 2.612725797153e-03 9.999962714278e-01 -8.128667766972e-04 2.674045118064e-03 9.999960943575e-01 -8.316107970244e-04 2.735701539016e-03 9.999959121719e-01 -8.503863178917e-04 2.797460000956e-03 9.999957255212e-01 -8.691004882266e-04 2.859015071274e-03 9.999955353386e-01 -8.876432165483e-04 2.920006263426e-03 9.999953428156e-01 -9.059207648700e-04 2.980133255048e-03 9.999951490449e-01 -9.239967727710e-04 3.039636532877e-03 9.999949534071e-01 -9.426100456835e-04 3.101058949685e-03 9.999947474461e-01 -9.650045227356e-04 3.175469623263e-03 9.999944925643e-01 -1.041600977405e-03 3.430591755683e-03 9.999935730332e-01 -5.740915125619e-04 1.383958684026e-03 9.999988775380e-01 -5.983216040274e-04 1.441494296143e-03 9.999987820520e-01 -6.143025489645e-04 1.479825850387e-03 9.999987163731e-01 -6.296734342813e-04 1.516804558750e-03 9.999986514067e-01 -6.455904804577e-04 1.555127871924e-03 9.999985823941e-01 -6.621901323726e-04 1.595103871877e-03 9.999985085728e-01 -6.794182100805e-04 1.636596840738e-03 9.999984299696e-01 -6.972026411309e-04 1.679431613009e-03 9.999983467076e-01 -7.154846480015e-04 1.723465992466e-03 9.999982588718e-01 -7.342205484878e-04 1.768594430867e-03 9.999981664953e-01 -7.533786059790e-04 1.814740272569e-03 9.999980695673e-01 -7.729355245307e-04 1.861847253129e-03 9.999979680457e-01 -7.928739131893e-04 1.909873370159e-03 9.999978618650e-01 -8.131799991324e-04 1.958785355408e-03 9.999977509466e-01 -8.338420287039e-04 2.008554819441e-03 9.999976352047e-01 -8.548486835407e-04 2.059154424008e-03 9.999975145553e-01 -8.761876364739e-04 2.110554395511e-03 9.999973889243e-01 -8.978441129084e-04 2.162719052642e-03 9.999972582574e-01 -9.197989894672e-04 2.215602213774e-03 9.999971225342e-01 -9.420266737707e-04 2.269142084104e-03 9.999969817854e-01 -9.644923390276e-04 2.323254574004e-03 9.999968361164e-01 -9.871483560722e-04 2.377824697583e-03 9.999966857384e-01 -1.009929934637e-03 2.432696071930e-03 9.999965310097e-01 -1.032750106078e-03 2.487658902018e-03 9.999963724836e-01 -1.055496181317e-03 2.542441765344e-03 9.999962109517e-01 -1.078035478897e-03 2.596726659780e-03 9.999960474173e-01 -1.100259757536e-03 2.650260561300e-03 9.999958827652e-01 -1.122268834041e-03 2.703313716003e-03 9.999957162946e-01 -1.145042814187e-03 2.758354708902e-03 9.999955401682e-01 -1.172819317364e-03 2.825972501483e-03 9.999953191762e-01 -1.282625249242e-03 3.093539608810e-03 9.999943924269e-01 -6.346101240592e-04 1.185362779471e-03 9.999990960921e-01 -6.624137650708e-04 1.236477109231e-03 9.999990161657e-01 -6.803142561069e-04 1.269731484432e-03 9.999989624767e-01 -6.973951262036e-04 1.301565219321e-03 9.999989097834e-01 -7.150485976145e-04 1.334494703487e-03 9.999988539140e-01 -7.334508454163e-04 1.368829489008e-03 9.999987941771e-01 -7.525478383547e-04 1.404463870011e-03 9.999987305757e-01 -7.722613344741e-04 1.441250369998e-03 9.999986632040e-01 -7.925267793986e-04 1.479067937848e-03 9.999985921287e-01 -8.132960678654e-04 1.517826492017e-03 9.999985173750e-01 -8.345342520647e-04 1.557460613971e-03 9.999984389333e-01 -8.562157610482e-04 1.597922441815e-03 9.999983567679e-01 -8.783213938737e-04 1.639176037246e-03 9.999982708252e-01 -9.008360593198e-04 1.681193150867e-03 9.999981810403e-01 -9.237468489568e-04 1.723949619249e-03 9.999980873429e-01 -9.470412872994e-04 1.767422088634e-03 9.999979896640e-01 -9.707058305112e-04 1.811585208986e-03 9.999978879424e-01 -9.947241726502e-04 1.856408462700e-03 9.999977821333e-01 -1.019075091149e-03 1.901852132683e-03 9.999976722195e-01 -1.043730166856e-03 1.947863041565e-03 9.999975582255e-01 -1.068650786718e-03 1.994368940831e-03 9.999974402357e-01 -1.093783975172e-03 2.041270722604e-03 9.999973184216e-01 -1.119057664115e-03 2.088433591259e-03 9.999971930736e-01 -1.144375061876e-03 2.135676620042e-03 9.999970646412e-01 -1.169611537092e-03 2.182767241363e-03 9.999969337633e-01 -1.194621888351e-03 2.229435984928e-03 9.999968012418e-01 -1.219295214027e-03 2.275483180193e-03 9.999966677422e-01 -1.243778108064e-03 2.321210638065e-03 9.999965324926e-01 -1.269288699514e-03 2.368993783331e-03 9.999963883808e-01 -1.300998920337e-03 2.428846887240e-03 9.999962040451e-01 -1.444320862367e-03 2.699289356318e-03 9.999953138761e-01 -6.530217039139e-04 9.755360074125e-04 9.999993109458e-01 -6.831141415181e-04 1.019737663009e-03 9.999992467448e-01 -7.018784810715e-04 1.047602515125e-03 9.999992049475e-01 -7.195879265833e-04 1.073993014280e-03 9.999991643658e-01 -7.378408604628e-04 1.101219572631e-03 9.999991214528e-01 -7.568555716703e-04 1.129590313002e-03 9.999990755973e-01 -7.765849138163e-04 1.159030399451e-03 9.999990267817e-01 -7.969504858107e-04 1.189421480202e-03 9.999989750727e-01 -8.178865997439e-04 1.220664989152e-03 9.999989205187e-01 -8.393441034302e-04 1.252687286897e-03 9.999988631374e-01 -8.612871718490e-04 1.285434725207e-03 9.999988029203e-01 -8.836897881591e-04 1.318868346325e-03 9.999987398385e-01 -9.065322957432e-04 1.352958716611e-03 9.999986738501e-01 -9.297993253060e-04 1.387682819656e-03 9.999986049038e-01 -9.534777137103e-04 1.423020942673e-03 9.999985329447e-01 -9.775547874867e-04 1.458954106153e-03 9.999984579186e-01 -1.002016686719e-03 1.495461556605e-03 9.999983797773e-01 -1.026846549638e-03 1.532518047398e-03 9.999982984859e-01 -1.052022589411e-03 1.570090961848e-03 9.999982140298e-01 -1.077515462715e-03 1.608136376077e-03 9.999981264272e-01 -1.103285150012e-03 1.646594390889e-03 9.999980357425e-01 -1.129276668158e-03 1.685382720716e-03 9.999979421075e-01 -1.155415373208e-03 1.724389686666e-03 9.999978457454e-01 -1.181600972667e-03 1.763465340302e-03 9.999977470020e-01 -1.207704821929e-03 1.802417710953e-03 9.999976463670e-01 -1.233579870523e-03 1.841028752820e-03 9.999975444439e-01 -1.259125119200e-03 1.879154555647e-03 9.999974416878e-01 -1.284544299714e-03 1.917125598576e-03 9.999973372841e-01 -1.311287547905e-03 1.957201755326e-03 9.999972249393e-01 -1.345393631117e-03 2.008735660042e-03 9.999970774442e-01 -1.520191219188e-03 2.272460026989e-03 9.999962624651e-01 -6.308558840630e-04 7.670656880294e-04 9.999995068154e-01 -6.619493645092e-04 8.041948459401e-04 9.999994575467e-01 -6.805488602141e-04 8.266597268512e-04 9.999994267433e-01 -6.978403317112e-04 8.476257590136e-04 9.999993972745e-01 -7.155941200747e-04 8.691757515166e-04 9.999993662291e-01 -7.340715329267e-04 8.916112065334e-04 9.999993330840e-01 -7.532386490422e-04 9.148868999335e-04 9.999992978065e-01 -7.730227154863e-04 9.389132569185e-04 9.999992604386e-01 -7.933612186911e-04 9.636138713514e-04 9.999992210128e-01 -8.142072215545e-04 9.889314775089e-04 9.999991795402e-01 -8.355263988699e-04 1.014824220951e-03 9.999991360133e-01 -8.572938831829e-04 1.041261781228e-03 9.999990904101e-01 -8.794909019117e-04 1.068221269522e-03 9.999990426991e-01 -9.021028731520e-04 1.095684903909e-03 9.999989928420e-01 -9.251172114780e-04 1.123637337095e-03 9.999989407981e-01 -9.485217957593e-04 1.152063788936e-03 9.999988865271e-01 -9.723033372707e-04 1.180948056656e-03 9.999988299933e-01 -9.964455919934e-04 1.210270336096e-03 9.999987711702e-01 -1.020927462622e-03 1.240004912115e-03 9.999987100466e-01 -1.045720370455e-03 1.270116953782e-03 9.999986466350e-01 -1.070785353844e-03 1.300558982900e-03 9.999985809815e-01 -1.096068755464e-03 1.331265620513e-03 9.999985131815e-01 -1.121497606886e-03 1.362147987955e-03 9.999984433968e-01 -1.146974183215e-03 1.393087146765e-03 9.999983718779e-01 -1.172373827714e-03 1.423931716999e-03 9.999982989776e-01 -1.197557785913e-03 1.454514482451e-03 9.999982251199e-01 -1.222446299737e-03 1.484744869077e-03 9.999981505771e-01 -1.247308999748e-03 1.514974759204e-03 9.999980745340e-01 -1.273818403637e-03 1.547323981258e-03 9.999979915856e-01 -1.308804855010e-03 1.590404156901e-03 9.999978788200e-01 -1.510844788501e-03 1.838511435851e-03 9.999971686079e-01 -5.730211465373e-04 5.715472483489e-04 9.999996724902e-01 -6.038998259824e-04 6.017521239971e-04 9.999996365996e-01 -6.214109973150e-04 6.190859020108e-04 9.999996152904e-01 -6.373571361749e-04 6.349392264804e-04 9.999995953139e-01 -6.536410608497e-04 6.511487050820e-04 9.999995743793e-01 -6.705659489606e-04 6.680024555875e-04 9.999995520569e-01 -6.881161988552e-04 6.854814099201e-04 9.999995283056e-01 -7.062296651338e-04 7.035225990349e-04 9.999995031477e-01 -7.248508324377e-04 7.220702983897e-04 9.999994766027e-01 -7.439377251921e-04 7.410824680695e-04 9.999994486766e-01 -7.634596490125e-04 7.605283862934e-04 9.999994193628e-01 -7.833942954920e-04 7.803857279271e-04 9.999993886456e-01 -8.037249635262e-04 8.006377775026e-04 9.999993565025e-01 -8.244386701314e-04 8.212715408830e-04 9.999993229067e-01 -8.455241529332e-04 8.422757439455e-04 9.999992878300e-01 -8.669705420293e-04 8.636395075332e-04 9.999992512442e-01 -8.887658648055e-04 8.853508492229e-04 9.999992131242e-01 -9.108953966707e-04 9.073950362889e-04 9.999991734516e-01 -9.333398492782e-04 9.297527731623e-04 9.999991322179e-01 -9.560729665942e-04 9.523977980593e-04 9.999990894310e-01 -9.790588802172e-04 9.752942400634e-04 9.999990451220e-01 -1.002248182659e-03 9.983926967721e-04 9.999989993548e-01 -1.025573445862e-03 1.021625775332e-03 9.999989522394e-01 -1.048944787449e-03 1.044903718786e-03 9.999989039449e-01 -1.072248444213e-03 1.068113231750e-03 9.999988547080e-01 -1.095362673193e-03 1.091134232656e-03 9.999988048026e-01 -1.118238605807e-03 1.113923768860e-03 9.999987543574e-01 -1.141217335467e-03 1.136843801710e-03 9.999987026037e-01 -1.166177696887e-03 1.161846505093e-03 9.999986450702e-01 -1.200659526591e-03 1.196731802485e-03 9.999985631238e-01 -1.423913095767e-03 1.421693771119e-03 9.999979756271e-01 -4.873337522256e-04 3.986443346951e-04 9.999998017942e-01 -5.169085611611e-04 4.223338737411e-04 9.999997772198e-01 -5.325789345624e-04 4.350398831637e-04 9.999997635500e-01 -5.464453830386e-04 4.463387264335e-04 9.999997510896e-01 -5.604948087312e-04 4.578036577643e-04 9.999997381307e-01 -5.750681345016e-04 4.697014036647e-04 9.999997243386e-01 -5.901717129550e-04 4.820341703184e-04 9.999997096702e-01 -6.057577359046e-04 4.947620098770e-04 9.999996941340e-01 -6.217805852112e-04 5.078473004692e-04 9.999996777400e-01 -6.382053273043e-04 5.212613179758e-04 9.999996604902e-01 -6.550064975299e-04 5.349831383695e-04 9.999996423797e-01 -6.721655066927e-04 5.489974918089e-04 9.999996233976e-01 -6.896686786701e-04 5.632931401904e-04 9.999996035289e-01 -7.075052045250e-04 5.778612043369e-04 9.999995827563e-01 -7.256657265073e-04 5.926939933619e-04 9.999995610614e-01 -7.441412284671e-04 6.077841007291e-04 9.999995384261e-01 -7.629215833533e-04 6.231232060092e-04 9.999995148339e-01 -7.819942152133e-04 6.387009829820e-04 9.999994902729e-01 -8.013425712858e-04 6.545038409173e-04 9.999994647373e-01 -8.209439866819e-04 6.705131758687e-04 9.999994382314e-01 -8.407673076412e-04 6.867034206987e-04 9.999994107742e-01 -8.607695980367e-04 7.030393458668e-04 9.999993824055e-01 -8.808920752705e-04 7.194727452208e-04 9.999993531939e-01 -9.010566399343e-04 7.359396380829e-04 9.999993232447e-01 -9.211658547214e-04 7.523604740977e-04 9.999992927033e-01 -9.411218342217e-04 7.686563722102e-04 9.999992617283e-01 -9.609137014571e-04 7.848235690284e-04 9.999992303481e-01 -9.809547060960e-04 8.012194047805e-04 9.999991978873e-01 -1.003303987591e-03 8.195978812331e-04 9.999991608199e-01 -1.036122966034e-03 8.468859832433e-04 9.999991046163e-01 -1.273440741493e-03 1.043136254488e-03 9.999986451068e-01 -3.838281897221e-04 2.553506870106e-04 9.999998937360e-01 -4.111582422409e-04 2.731288311035e-04 9.999998781748e-01 -4.244483044873e-04 2.818792862512e-04 9.999998701938e-01 -4.357503500721e-04 2.893625380995e-04 9.999998631955e-01 -4.470682088163e-04 2.968696697481e-04 9.999998559992e-01 -4.587695567217e-04 3.046354284934e-04 9.999998483639e-01 -4.708852126250e-04 3.126778861231e-04 9.999998402498e-01 -4.833849840368e-04 3.209762731500e-04 9.999998316566e-01 -4.962351952214e-04 3.295079334804e-04 9.999998225876e-01 -5.094091192183e-04 3.382549632951e-04 9.999998130429e-01 -5.228873146213e-04 3.472043485723e-04 9.999998030190e-01 -5.366556550780e-04 3.563466382699e-04 9.999997925089e-01 -5.507039418451e-04 3.656750052664e-04 9.999997815035e-01 -5.650240498859e-04 3.751840126253e-04 9.999997699924e-01 -5.796090407927e-04 3.848690147886e-04 9.999997579646e-01 -5.944520959860e-04 3.947254501418e-04 9.999997454092e-01 -6.095453545036e-04 4.047480588170e-04 9.999997323167e-01 -6.248789104475e-04 4.149302181358e-04 9.999997186796e-01 -6.404396217269e-04 4.252631434077e-04 9.999997044941e-01 -6.562092989481e-04 4.357346800594e-04 9.999996897623e-01 -6.721624355845e-04 4.463277890382e-04 9.999996744945e-01 -6.882638121133e-04 4.570189473107e-04 9.999996587132e-01 -7.044651940852e-04 4.677759610327e-04 9.999996424572e-01 -7.207028996493e-04 4.785563808343e-04 9.999996257855e-01 -7.369000943876e-04 4.893092242197e-04 9.999996087773e-01 -7.529885301822e-04 4.999901212614e-04 9.999995915090e-01 -7.689994990620e-04 5.106243432188e-04 9.999995739512e-01 -7.854092979594e-04 5.215454921849e-04 9.999995555612e-01 -8.044114746502e-04 5.342734867277e-04 9.999995337369e-01 -8.347060975086e-04 5.548176516347e-04 9.999994977214e-01 -1.078880595296e-03 7.192387968622e-04 9.999991593558e-01 -2.739312954195e-04 1.454983035350e-04 9.999999518959e-01 -2.982034746038e-04 1.580937064912e-04 9.999999430405e-01 -3.087836930968e-04 1.636453640261e-04 9.999999389364e-01 -3.173107976818e-04 1.681478180507e-04 9.999999355201e-01 -3.257102814498e-04 1.725926224582e-04 9.999999320623e-01 -3.343414286497e-04 1.771631649633e-04 9.999999284145e-01 -3.432555676015e-04 1.818848606111e-04 9.999999245468e-01 -3.524448321283e-04 1.867530208854e-04 9.999999204530e-01 -3.618915013964e-04 1.917580499380e-04 9.999999161317e-01 -3.715788285590e-04 1.968909610876e-04 9.999999115816e-01 -3.814936199800e-04 2.021446850588e-04 9.999999068001e-01 -3.916260008392e-04 2.075139330148e-04 9.999999017835e-01 -4.019690021359e-04 2.129949697366e-04 9.999998965270e-01 -4.125172950787e-04 2.185849393658e-04 9.999998910250e-01 -4.232665245474e-04 2.242815067112e-04 9.999998852716e-01 -4.342123404610e-04 2.300823415937e-04 9.999998792609e-01 -4.453495826426e-04 2.359846817391e-04 9.999998729875e-01 -4.566713822593e-04 2.419848540475e-04 9.999998664473e-01 -4.681680468576e-04 2.480776781160e-04 9.999998596381e-01 -4.798257266445e-04 2.542557535399e-04 9.999998525606e-01 -4.916246738629e-04 2.605085314030e-04 9.999998452202e-01 -5.035377109311e-04 2.668214975331e-04 9.999998376280e-01 -5.155286935604e-04 2.731753637912e-04 9.999998298027e-01 -5.275525045027e-04 2.795461049027e-04 9.999998217711e-01 -5.395594842549e-04 2.859074779914e-04 9.999998135662e-01 -5.515158599589e-04 2.922424521113e-04 9.999998052123e-01 -5.634869644781e-04 2.985894850009e-04 9.999997966634e-01 -5.759720298275e-04 3.052277631965e-04 9.999997875461e-01 -5.912221100989e-04 3.134042226423e-04 9.999997761171e-01 -6.184744763245e-04 3.282178440968e-04 9.999997548812e-01 -8.641397553038e-04 4.605921660253e-04 9.999995205586e-01 -1.695548113527e-04 6.951150032515e-05 9.999999832097e-01 -1.900487966510e-04 7.773266781901e-05 9.999999789195e-01 -1.977523158282e-04 8.084751480420e-05 9.999999771789e-01 -2.034990808868e-04 8.318618172788e-05 9.999999758341e-01 -2.090948938876e-04 8.546993512303e-05 9.999999744871e-01 -2.148108986655e-04 8.780494302021e-05 9.999999730733e-01 -2.206737212154e-04 9.020074234907e-05 9.999999715835e-01 -2.266868991322e-04 9.265839672784e-05 9.999999700137e-01 -2.328535051702e-04 9.517906082824e-05 9.999999683601e-01 -2.391745221957e-04 9.776310604876e-05 9.999999666190e-01 -2.456484545450e-04 1.004099022844e-04 9.999999647873e-01 -2.522722790115e-04 1.031181925357e-04 9.999999628627e-01 -2.590426128457e-04 1.058865727275e-04 9.999999608425e-01 -2.659561943932e-04 1.087136877753e-04 9.999999587243e-01 -2.730099862366e-04 1.115982764973e-04 9.999999565057e-01 -2.802007704182e-04 1.145390025399e-04 9.999999541842e-01 -2.875246784017e-04 1.175342620097e-04 9.999999517576e-01 -2.949765343497e-04 1.205819097297e-04 9.999999492244e-01 -3.025492470966e-04 1.236790090199e-04 9.999999465837e-01 -3.102335697748e-04 1.268217310173e-04 9.999999438357e-01 -3.180179479066e-04 1.300052939577e-04 9.999999409816e-01 -3.258889442928e-04 1.332241447636e-04 9.999999380239e-01 -3.338315623301e-04 1.364721078331e-04 9.999999349659e-01 -3.418284697617e-04 1.397421058642e-04 9.999999318127e-01 -3.498574193841e-04 1.430252085124e-04 9.999999285718e-01 -3.578945221322e-04 1.463123601890e-04 9.999999252521e-01 -3.659738138227e-04 1.496203174914e-04 9.999999218385e-01 -3.745254396719e-04 1.531362840867e-04 9.999999181400e-01 -3.858420898216e-04 1.578423390382e-04 9.999999131058e-01 -4.100940678110e-04 1.680772236308e-04 9.999999017864e-01 -6.586289554750e-04 2.719329303178e-04 9.999997461302e-01 -8.215880064386e-05 2.440644757549e-05 9.999999963271e-01 -9.814752180257e-05 2.910444153099e-05 9.999999947600e-01 -1.032018644456e-04 3.059119263663e-05 9.999999942068e-01 -1.061840597960e-04 3.146858290646e-05 9.999999938673e-01 -1.091260157693e-04 3.233774386661e-05 9.999999935229e-01 -1.122793571222e-04 3.327186619039e-05 9.999999931432e-01 -1.155764120223e-04 3.424972310362e-05 9.999999927345e-01 -1.189522884842e-04 3.525138248576e-05 9.999999923038e-01 -1.223814029659e-04 3.626894622633e-05 9.999999918537e-01 -1.258626028119e-04 3.730198100093e-05 9.999999913836e-01 -1.294040913082e-04 3.835292884063e-05 9.999999908918e-01 -1.330150694195e-04 3.942455832309e-05 9.999999903763e-01 -1.367023802865e-04 4.051893664482e-05 9.999999898353e-01 -1.404698936293e-04 4.163723503899e-05 9.999999892673e-01 -1.443190621020e-04 4.277989357208e-05 9.999999886709e-01 -1.482498252750e-04 4.394689274120e-05 9.999999880453e-01 -1.522617421020e-04 4.513809701914e-05 9.999999873895e-01 -1.563551283149e-04 4.635360007213e-05 9.999999867022e-01 -1.605320482494e-04 4.759402907606e-05 9.999999859821e-01 -1.647968870163e-04 4.886072307273e-05 9.999999852273e-01 -1.691557051628e-04 5.015554591838e-05 9.999999844354e-01 -1.736129723430e-04 5.147990824492e-05 9.999999836042e-01 -1.781633990092e-04 5.283230589501e-05 9.999999827333e-01 -1.827765913271e-04 5.420368704725e-05 9.999999818273e-01 -1.873764702942e-04 5.557124602959e-05 9.999999809009e-01 -1.918377781553e-04 5.689750296189e-05 9.999999799805e-01 -1.960899748571e-04 5.816245367145e-05 9.999999790829e-01 -2.006208934581e-04 5.951912176888e-05 9.999999781044e-01 -2.083056998433e-04 6.186004889487e-05 9.999999763910e-01 -2.316245195145e-04 6.906375785952e-05 9.999999707901e-01 -5.163054424424e-04 1.564008006092e-04 9.999998544837e-01 -2.286524537568e-05 4.241682354601e-06 9.999999997296e-01 -3.179777979570e-05 5.977549984121e-06 9.999999994766e-01 -3.576228257725e-05 6.752601791759e-06 9.999999993377e-01 -3.689472479632e-05 6.968194672167e-06 9.999999992951e-01 -3.737393866478e-05 7.052951818309e-06 9.999999992767e-01 -3.798580269340e-05 7.163069250925e-06 9.999999992529e-01 -3.887427590291e-05 7.327717663870e-06 9.999999992175e-01 -4.000294158078e-05 7.539997308651e-06 9.999999991715e-01 -4.130485913958e-05 7.786736860603e-06 9.999999991166e-01 -4.272201880082e-05 8.056428527479e-06 9.999999990550e-01 -4.421271309391e-05 8.340755153204e-06 9.999999989878e-01 -4.575037265100e-05 8.634392034588e-06 9.999999989162e-01 -4.732048853504e-05 8.934411877845e-06 9.999999988405e-01 -4.891746524607e-05 9.239667454505e-06 9.999999987609e-01 -5.054171428602e-05 9.550217780044e-06 9.999999986772e-01 -5.219695402056e-05 9.866793508510e-06 9.999999985891e-01 -5.388744198234e-05 1.019024830880e-05 9.999999984962e-01 -5.561478676173e-05 1.052092628519e-05 9.999999983982e-01 -5.737390200430e-05 1.085785811167e-05 9.999999982952e-01 -5.914776937357e-05 1.119771847051e-05 9.999999981881e-01 -6.090090662624e-05 1.153352103130e-05 9.999999980790e-01 -6.257253860963e-05 1.185324475833e-05 9.999999979721e-01 -6.407305060525e-05 1.213909582951e-05 9.999999978736e-01 -6.529275668662e-05 1.236919567948e-05 9.999999977919e-01 -6.614158103554e-05 1.252540140411e-05 9.999999977342e-01 -6.665385324557e-05 1.261412108643e-05 9.999999976991e-01 -6.722354476154e-05 1.271334379418e-05 9.999999976597e-01 -6.916109608061e-05 1.308476359556e-05 9.999999975228e-01 -7.656102165873e-05 1.455236469358e-05 9.999999969633e-01 -1.084630624802e-04 2.097928450636e-05 9.999999938978e-01 -3.933832036237e-03 8.021466276520e-04 9.999919407307e-01 5.782470080555e-07 -3.469297450512e-08 9.999999999998e-01 -2.560579392349e-07 1.531426570108e-08 1.000000000000e+00 -5.628416718965e-07 3.787143179075e-08 9.999999999998e-01 -7.012581242773e-07 5.135660258911e-08 9.999999999998e-01 -7.270443961110e-07 5.597895382035e-08 9.999999999997e-01 -6.797147366616e-07 5.378385539304e-08 9.999999999998e-01 -5.970942878746e-07 4.789031797697e-08 9.999999999998e-01 -5.068707111144e-07 4.087262820209e-08 9.999999999999e-01 -4.241021015904e-07 3.421766883032e-08 9.999999999999e-01 -3.546621377764e-07 2.855145447694e-08 9.999999999999e-01 -2.994997583391e-07 2.401885028955e-08 1.000000000000e+00 -2.575265886521e-07 2.055573855467e-08 1.000000000000e+00 -2.271318456038e-07 1.803549870996e-08 1.000000000000e+00 -2.068552175226e-07 1.633535112827e-08 1.000000000000e+00 -1.956420367144e-07 1.536202569518e-08 1.000000000000e+00 -1.929198504981e-07 1.505958275650e-08 1.000000000000e+00 -1.986170910774e-07 1.541101066639e-08 1.000000000000e+00 -2.131785868295e-07 1.643897499561e-08 1.000000000000e+00 -2.376120695280e-07 1.820903776917e-08 1.000000000000e+00 -2.735934702337e-07 2.083819169649e-08 1.000000000000e+00 -3.236784289590e-07 2.451357735257e-08 9.999999999999e-01 -3.917027514390e-07 2.953033748431e-08 9.999999999999e-01 -4.835600427473e-07 3.636895277129e-08 9.999999999999e-01 -6.087813817404e-07 4.585877059732e-08 9.999999999998e-01 -7.840012256726e-07 5.954739518676e-08 9.999999999997e-01 -1.041539245584e-06 8.062884214903e-08 9.999999999995e-01 -1.454924423199e-06 1.166985729183e-07 9.999999999989e-01 -2.243150066142e-06 1.907763817857e-07 9.999999999975e-01 -4.641940859141e-06 4.304244585332e-07 9.999999999891e-01 9.949082249319e-01 -1.007850382481e-01 -5.313289928364e-06 9.939886617211e-01 -1.094827972396e-01 -2.397465688739e-04 2.689779377431e-06 -3.810116597857e-07 9.999999999963e-01 -8.971094361058e-08 -1.102839204774e-08 1.000000000000e+00 -5.414812773908e-07 -1.491890884121e-08 9.999999999999e-01 -1.150089785477e-06 -1.194747959520e-08 9.999999999993e-01 -2.057147393706e-06 -7.139562199686e-09 9.999999999979e-01 -4.525899572597e-06 1.608862795780e-09 9.999999999898e-01 9.999966532625e-01 -2.587005900970e-03 -2.939680893967e-05 9.999977865052e-01 -2.104037798580e-03 -3.098317970475e-06 9.999985204728e-01 -1.720188951284e-03 -1.491223182800e-06 9.999989901040e-01 -1.421193204256e-03 -9.156888384321e-07 9.999992890458e-01 -1.192437597529e-03 -6.297742149741e-07 9.999994783410e-01 -1.021429196837e-03 -4.680760875245e-07 9.999995964613e-01 -8.983746771570e-04 -3.724473137136e-07 9.999996669761e-01 -8.161173541802e-04 -3.175842462823e-07 9.999997036234e-01 -7.699046142596e-04 -2.916279106906e-07 9.999997133582e-01 -7.571548173438e-04 -2.897828722271e-07 9.999996979087e-01 -7.772917498170e-04 -3.122531702207e-07 9.999996541785e-01 -8.316506350297e-04 -3.642743898165e-07 9.999995736159e-01 -9.234542334978e-04 -4.581250721781e-07 9.999994405072e-01 -1.057820806201e-03 -6.187338285646e-07 9.999992290327e-01 -1.241746065513e-03 -8.990441393242e-07 9.999988990228e-01 -1.483897267631e-03 -1.430709231690e-06 9.999983909360e-01 -1.793911460350e-03 -2.663485753514e-06 9.999976227512e-01 -2.180465143348e-03 -7.977767524208e-06 -1.329472839355e-05 1.788775268029e-08 9.999999999116e-01 -3.894283299554e-06 -8.873481448907e-09 9.999999999924e-01 -2.131077791419e-06 -1.744210864670e-08 9.999999999977e-01 -1.181228375905e-06 -2.346131040848e-08 9.999999999993e-01 -4.737495016796e-07 -2.447561661407e-08 9.999999999999e-01 -3.166901477943e-08 -9.617539227484e-09 1.000000000000e+00 4.268657150162e-06 -7.565292036761e-07 9.999999999906e-01 
        </DataArray>
        <DataArray type="Float64" Name="NORMSTRESS_3" NumberOfComponents="3" format="ascii">
          -8.598728229717e-04 9.999979423654e-01 -1.837357779177e-03 -5.942414942945e-04 9.999979993678e-01 -1.910009788932e-03 -4.420842108243e-04 9.999979811322e-01 -1.960176806003e-03 -3.403146572472e-04 9.999979239342e-01 -2.009057808953e-03 -2.695456772677e-04 9.999978422711e-01 -2.059805394958e-03 -2.195839354219e-04 9.999977440450e-01 -2.112744135323e-03 -1.840449603908e-04 9.999976336414e-01 -2.167680559215e-03 -1.586221429440e-04 9.999975134781e-01 -2.224382305246e-03 -1.403242968493e-04 9.999973848776e-01 -2.282662274549e-03 -1.270447990948e-04 9.999972485497e-01 -2.342381849735e-03 -1.172833615367e-04 9.999971048561e-01 -2.403440034323e-03 -1.099566280292e-04 9.999969539573e-01 -2.465762712315e-03 -1.042658261082e-04 9.999967958945e-01 -2.529294242501e-03 -9.960084352862e-05 9.999966306400e-01 -2.593990791509e-03 -9.547019397469e-05 9.999964581294e-01 -2.659814671112e-03 -9.144609095068e-05 9.999962782846e-01 -2.726729648397e-03 -8.711876865974e-05 9.999960910325e-01 -2.794696778634e-03 -8.205536112693e-05 9.999958963254e-01 -2.863668857649e-03 -7.575758161783e-05 9.999956941597e-01 -2.933585332133e-03 -6.761666413564e-05 9.999954845981e-01 -3.004365387515e-03 -5.685815788184e-05 9.999952677955e-01 -3.075898856714e-03 -4.247617632690e-05 9.999950440221e-01 -3.148035421212e-03 -2.314852175456e-05 9.999948136825e-01 -3.220570188033e-03 2.870213428996e-06 9.999945773075e-01 -3.293227488760e-03 3.788184290342e-05 9.999943354739e-01 -3.365647781628e-03 8.489765872800e-05 9.999940885188e-01 -3.437400158117e-03 1.477706691150e-04 9.999938356697e-01 -3.508102964838e-03 2.311326939852e-04 9.999935724408e-01 -3.577940020815e-03 3.395267013791e-04 9.999932826877e-01 -3.649561774996e-03 4.736426290263e-04 9.999929133815e-01 -3.734815858422e-03 6.114442916593e-04 9.999921871854e-01 -3.905343002225e-03 -9.795158818076e-02 9.951895485911e-01 -1.802428359762e-03 -9.800472006117e-02 9.951841863782e-01 -1.873506981850e-03 -9.801399580338e-02 9.951831792877e-01 -1.922573683663e-03 -9.801609733498e-02 9.951828787101e-01 -1.970427738755e-03 -9.801660140220e-02 9.951827293834e-01 -2.020145162860e-03 -9.801673997466e-02 9.951826090573e-01 -2.072031516440e-03 -9.801678980131e-02 9.951824905576e-01 -2.125889115475e-03 -9.801681445996e-02 9.951823678122e-01 -2.181485441460e-03 -9.801682947650e-02 9.951822394194e-01 -2.238634298661e-03 -9.801683859832e-02 9.951821050603e-01 -2.297198073141e-03 -9.801684339261e-02 9.951819645674e-01 -2.357076803390e-03 -9.801684421339e-02 9.951818178466e-01 -2.418197240125e-03 -9.801684144801e-02 9.951816647682e-01 -2.480504332156e-03 -9.801683523195e-02 9.951815052065e-01 -2.543954788727e-03 -9.801682566189e-02 9.951813390307e-01 -2.608511503841e-03 -9.801681292020e-02 9.951811661034e-01 -2.674138744822e-03 -9.801679704693e-02 9.951809863151e-01 -2.740797989824e-03 -9.801677821611e-02 9.951807995721e-01 -2.808442827273e-03 -9.801675641842e-02 9.951806058467e-01 -2.877013688593e-03 -9.801673187006e-02 9.951804051622e-01 -2.946430858287e-03 -9.801670471496e-02 9.951801976552e-01 -3.016586121814e-03 -9.801667485204e-02 9.951799836377e-01 -3.087331842595e-03 -9.801664074907e-02 9.951797637734e-01 -3.158466748245e-03 -9.801659753899e-02 9.951795393347e-01 -3.229720809773e-03 -9.801652488274e-02 9.951793134638e-01 -3.300742901848e-03 -9.801635057322e-02 9.951790947409e-01 -3.371114212030e-03 -9.801581908540e-02 9.951789097327e-01 -3.440469767618e-03 -9.801404689611e-02 9.951788449529e-01 -3.509012564679e-03 -9.800800515325e-02 9.951791893029e-01 -3.579399987725e-03 -9.798742150377e-02 9.951809105273e-01 -3.663406767638e-03 -9.791069684237e-02 9.951876820616e-01 -3.869485321860e-03 -1.949598861574e-01 9.808096876955e-01 -1.731852260077e-03 -1.950656311582e-01 9.807885381370e-01 -1.800833116256e-03 -1.950840911197e-01 9.807847785514e-01 -1.848121739192e-03 -1.950882750054e-01 9.807838585328e-01 -1.894148060214e-03 -1.950892804166e-01 9.807835650700e-01 -1.941946240472e-03 -1.950895584044e-01 9.807834097433e-01 -1.991826783787e-03 -1.950896596092e-01 9.807832830957e-01 -2.043603098107e-03 -1.950897109084e-01 9.807831600662e-01 -2.097052276273e-03 -1.950897428779e-01 9.807830346918e-01 -2.151995462991e-03 -1.950897633689e-01 9.807829054578e-01 -2.208300326231e-03 -1.950897749440e-01 9.807827718423e-01 -2.265870605473e-03 -1.950897789058e-01 9.807826335301e-01 -2.324635922753e-03 -1.950897758802e-01 9.807824903105e-01 -2.384543438985e-03 -1.950897658822e-01 9.807823420751e-01 -2.445551411365e-03 -1.950897493260e-01 9.807821886277e-01 -2.507624098415e-03 -1.950897267331e-01 9.807820297521e-01 -2.570727235008e-03 -1.950896979564e-01 9.807818653786e-01 -2.634823681611e-03 -1.950896631802e-01 9.807816953986e-01 -2.699868748997e-03 -1.950896227445e-01 9.807815197178e-01 -2.765805033107e-03 -1.950895770831e-01 9.807813382919e-01 -2.832555726532e-03 -1.950895260814e-01 9.807811512860e-01 -2.900016453474e-03 -1.950894694395e-01 9.807809590443e-01 -2.968044811724e-03 -1.950894051201e-01 9.807807624542e-01 -3.036446864150e-03 -1.950893221820e-01 9.807805644381e-01 -3.104962337429e-03 -1.950891806256e-01 9.807803740232e-01 -3.173252853029e-03 -1.950888362749e-01 9.807802212634e-01 -3.240916460061e-03 -1.950877817981e-01 9.807802083659e-01 -3.307608015471e-03 -1.950842578594e-01 9.807806847173e-01 -3.373547238376e-03 -1.950722374417e-01 9.807828399133e-01 -3.441382159298e-03 -1.950312767168e-01 9.807906969332e-01 -3.522770423699e-03 -1.948785492698e-01 9.808201696805e-01 -3.761087928971e-03 -2.900906786348e-01 9.569977764397e-01 -1.629128225376e-03 -2.902479988666e-01 9.569499597523e-01 -1.695194409378e-03 -2.902754580238e-01 9.569415505052e-01 -1.739938417819e-03 -2.902816840392e-01 9.569395820290e-01 -1.783327631800e-03 -2.902831830940e-01 9.569390423385e-01 -1.828349286454e-03 -2.902836005096e-01 9.569388248120e-01 -1.875324671906e-03 -2.902837547979e-01 9.569386812116e-01 -1.924084590062e-03 -2.902838349178e-01 9.569385543745e-01 -1.974420711279e-03 -2.902838861586e-01 9.569384306691e-01 -2.026165156205e-03 -2.902839207011e-01 9.569383064424e-01 -2.079193487533e-03 -2.902839421144e-01 9.569381806002e-01 -2.133415133895e-03 -2.902839522269e-01 9.569380525365e-01 -2.188763860739e-03 -2.902839519606e-01 9.569379218920e-01 -2.245190208894e-03 -2.902839420666e-01 9.569377883432e-01 -2.302654804290e-03 -2.902839225366e-01 9.569376517884e-01 -2.361123979256e-03 -2.902838939369e-01 9.569375119530e-01 -2.420565648224e-03 -2.902838566521e-01 9.569373686297e-01 -2.480944817590e-03 -2.902838108300e-01 9.569372217083e-01 -2.542219350328e-03 -2.902837566852e-01 9.569370710991e-01 -2.604335039229e-03 -2.902836947496e-01 9.569369166786e-01 -2.667219544205e-03 -2.902836254666e-01 9.569367584423e-01 -2.730774227496e-03 -2.902835479456e-01 9.569365969201e-01 -2.794864402979e-03 -2.902834587532e-01 9.569364335930e-01 -2.859307020973e-03 -2.902833418731e-01 9.569362739987e-01 -2.923856430178e-03 -2.902831382500e-01 9.569361370269e-01 -2.988193396455e-03 -2.902826325425e-01 9.569360892454e-01 -3.051940997405e-03 -2.902810703550e-01 9.569363606376e-01 -3.114784630264e-03 -2.902758352134e-01 9.569377442313e-01 -3.176972894894e-03 -2.902579630343e-01 9.569429501379e-01 -3.241153595992e-03 -2.901970387765e-01 9.569611610970e-01 -3.318860831022e-03 -2.899697800116e-01 9.570290867011e-01 -3.585231943231e-03 -3.824278281178e-01 9.239841510328e-01 -1.498306141806e-03 -3.826351741848e-01 9.238982019592e-01 -1.560734780411e-03 -3.826713536736e-01 9.238831461971e-01 -1.602264207166e-03 -3.826795598354e-01 9.238796768525e-01 -1.642310273066e-03 -3.826815395468e-01 9.238787821366e-01 -1.683807590334e-03 -3.826820940418e-01 9.238784725544e-01 -1.727093011059e-03 -3.826823022782e-01 9.238783012209e-01 -1.772020415974e-03 -3.826824127891e-01 9.238781653237e-01 -1.818400392672e-03 -3.826824852356e-01 9.238780402427e-01 -1.866079075873e-03 -3.826825358462e-01 9.238779192916e-01 -1.914942235281e-03 -3.826825697357e-01 9.238778003401e-01 -1.964906905250e-03 -3.826825891815e-01 9.238776823992e-01 -2.015912189241e-03 -3.826825952327e-01 9.238775649638e-01 -2.067912626879e-03 -3.826825890171e-01 9.238774474811e-01 -2.120872211678e-03 -3.826825709379e-01 9.238773296918e-01 -2.174760217288e-03 -3.826825413764e-01 9.238772113466e-01 -2.229547055110e-03 -3.826825007384e-01 9.238770921975e-01 -2.285200500523e-03 -3.826824493592e-01 9.238769720467e-01 -2.341681934302e-03 -3.826823878853e-01 9.238768506044e-01 -2.398941371989e-03 -3.826823164489e-01 9.238767278491e-01 -2.456911928849e-03 -3.826822355359e-01 9.238766036934e-01 -2.515502588559e-03 -3.826821443260e-01 9.238764787059e-01 -2.574588891114e-03 -3.826820379728e-01 9.238763552818e-01 -2.634001563366e-03 -3.826818953778e-01 9.238762427593e-01 -2.693513498473e-03 -3.826816380072e-01 9.238761745248e-01 -2.752830810304e-03 -3.826809829196e-01 9.238762688623e-01 -2.811608927496e-03 -3.826789356028e-01 9.238769386659e-01 -2.869572661646e-03 -3.826720496397e-01 9.238796106841e-01 -2.927009876915e-03 -3.826485133581e-01 9.238891684541e-01 -2.986576288517e-03 -3.825682420750e-01 9.239221712547e-01 -3.059676395798e-03 -3.822686607465e-01 9.240451590173e-01 -3.348896515199e-03 -4.710820995177e-01 8.820883446123e-01 -1.344549376874e-03 -4.713374182578e-01 8.819518527020e-01 -1.402735051216e-03 -4.713819447069e-01 8.819279943176e-01 -1.440501092996e-03 -4.713920458118e-01 8.819225355527e-01 -1.476627823535e-03 -4.713944861444e-01 8.819211678287e-01 -1.513990828765e-03 -4.713951729834e-01 8.819207329722e-01 -1.552946166988e-03 -4.713954337492e-01 8.819205214735e-01 -1.593375145978e-03 -4.713955742084e-01 8.819203700047e-01 -1.635110820591e-03 -4.713956683456e-01 8.819202390961e-01 -1.678016002673e-03 -4.713957358672e-01 8.819201182429e-01 -1.721988570764e-03 -4.713957835074e-01 8.819200038346e-01 -1.766954356595e-03 -4.713958142190e-01 8.819198942527e-01 -1.812859095684e-03 -4.713958293264e-01 8.819197887284e-01 -1.859662042017e-03 -4.713958300356e-01 8.819196865434e-01 -1.907331167899e-03 -4.713958170159e-01 8.819195872603e-01 -1.955839078095e-03 -4.713957910124e-01 8.819194904026e-01 -2.005159295527e-03 -4.713957523031e-01 8.819193957524e-01 -2.055263078936e-03 -4.713957012764e-01 8.819193030511e-01 -2.106115827630e-03 -4.713956386769e-01 8.819192118815e-01 -2.157672510011e-03 -4.713955647354e-01 8.819191221477e-01 -2.209872831128e-03 -4.713954799068e-01 8.819190337026e-01 -2.262634871414e-03 -4.713953830318e-01 8.819189473599e-01 -2.315846253009e-03 -4.713952679929e-01 8.819188667190e-01 -2.369354124098e-03 -4.713951087491e-01 8.819188062088e-01 -2.422953294175e-03 -4.713948079990e-01 8.819188185622e-01 -2.476379905826e-03 -4.713940180146e-01 8.819190905523e-01 -2.529327858939e-03 -4.713915145268e-01 8.819202773124e-01 -2.581568777344e-03 -4.713830567163e-01 8.819246446525e-01 -2.633437925061e-03 -4.713541056309e-01 8.819399548084e-01 -2.687604416563e-03 -4.712553040969e-01 8.819925433207e-01 -2.755337944385e-03 -4.708863276272e-01 8.821885820150e-01 -3.061407542628e-03 -5.551997292093e-01 8.317162271955e-01 -1.173927409659e-03 -5.555004746355e-01 8.315153132519e-01 -1.227398636680e-03 -5.555528805193e-01 8.314802504238e-01 -1.260992416110e-03 -5.555647687863e-01 8.314722583576e-01 -1.292774177384e-03 -5.555676432681e-01 8.314702860973e-01 -1.325553025626e-03 -5.555684548967e-01 8.314696886370e-01 -1.359706443288e-03 -5.555687646697e-01 8.314694229441e-01 -1.395146016418e-03 -5.555689330984e-01 8.314692482141e-01 -1.431729782507e-03 -5.555690473470e-01 8.314691062643e-01 -1.469339292761e-03 -5.555691311931e-01 8.314689812284e-01 -1.507886010808e-03 -5.555691924431e-01 8.314688678802e-01 -1.547305426476e-03 -5.555692347910e-01 8.314687637167e-01 -1.587550693394e-03 -5.555692600599e-01 8.314686674691e-01 -1.628586417758e-03 -5.555692697102e-01 8.314685781002e-01 -1.670384923398e-03 -5.555692646144e-01 8.314684949608e-01 -1.712922506686e-03 -5.555692455322e-01 8.314684174780e-01 -1.756176345733e-03 -5.555692128465e-01 8.314683453384e-01 -1.800121484485e-03 -5.555691672051e-01 8.314682780667e-01 -1.844727563236e-03 -5.555691092118e-01 8.314682152424e-01 -1.889955358090e-03 -5.555690392536e-01 8.314681566283e-01 -1.935752045397e-03 -5.555689574230e-01 8.314681022404e-01 -1.982045587133e-03 -5.555688624377e-01 8.314680530939e-01 -2.028737018340e-03 -5.555687468778e-01 8.314680144150e-01 -2.075692011435e-03 -5.555685795862e-01 8.314680074382e-01 -2.122730169216e-03 -5.555682460494e-01 8.314681092675e-01 -2.169620402392e-03 -5.555673362263e-01 8.314685946086e-01 -2.216099714187e-03 -5.555644102266e-01 8.314704261008e-01 -2.261992330226e-03 -5.555544763844e-01 8.314769379566e-01 -2.307686202915e-03 -5.555204189582e-01 8.314995574359e-01 -2.355865939025e-03 -5.554040993298e-01 8.315770808256e-01 -2.417662740017e-03 -5.549693448246e-01 8.318663061219e-01 -2.734052671999e-03 -6.339706573284e-01 7.733564632692e-01 -9.931598168995e-04 -6.343138026204e-01 7.730749736614e-01 -1.041587092900e-03 -6.343735270142e-01 7.730259256411e-01 -1.070752195115e-03 -6.343870743492e-01 7.730147698790e-01 -1.097928779194e-03 -6.343903524343e-01 7.730120394922e-01 -1.125850039922e-03 -6.343912801209e-01 7.730112352859e-01 -1.154914829862e-03 -6.343916353934e-01 7.730108980861e-01 -1.185066674718e-03 -6.343918294959e-01 7.730106904502e-01 -1.216190179170e-03 -6.343919617807e-01 7.730105308844e-01 -1.248186622508e-03 -6.343920603397e-01 7.730103963487e-01 -1.280981961210e-03 -6.343921341259e-01 7.730102794860e-01 -1.314522065694e-03 -6.343921876320e-01 7.730101765806e-01 -1.348767722195e-03 -6.343922231128e-01 7.730100857413e-01 -1.383689328223e-03 -6.343922424356e-01 7.730100053864e-01 -1.419263887502e-03 -6.343922466948e-01 7.730099345650e-01 -1.455471552306e-03 -6.343922365141e-01 7.730098727129e-01 -1.492293207865e-03 -6.343922125713e-01 7.730098192278e-01 -1.529707898983e-03 -6.343921757867e-01 7.730097733203e-01 -1.567690011744e-03 -6.343921264200e-01 7.730097347625e-01 -1.606206284083e-03 -6.343920649759e-01 7.730097031566e-01 -1.645211661189e-03 -6.343919911156e-01 7.730096788402e-01 -1.684644724909e-03 -6.343919034741e-01 7.730096630567e-01 -1.724420896770e-03 -6.343917930577e-01 7.730096633968e-01 -1.764425181918e-03 -6.343916239634e-01 7.730097096490e-01 -1.804503643522e-03 -6.343912650990e-01 7.730099098542e-01 -1.844460181396e-03 -6.343902488260e-01 7.730106483396e-01 -1.884077508899e-03 -6.343869347567e-01 7.730132716695e-01 -1.923235006709e-03 -6.343756348281e-01 7.730224466456e-01 -1.962375711996e-03 -6.343368344323e-01 7.730541789991e-01 -2.004199229044e-03 -6.342041998520e-01 7.731628486582e-01 -2.059695313286e-03 -6.337079357623e-01 7.735687360468e-01 -2.379656037556e-03 -7.066363476860e-01 7.075764390594e-01 -8.093312019408e-04 -7.070183900539e-01 7.071946474116e-01 -8.525244736869e-04 -7.070847784917e-01 7.071282391541e-01 -8.771637186160e-04 -7.070998388602e-01 7.071131511398e-01 -8.996493695800e-04 -7.071034898579e-01 7.071094705861e-01 -9.226256840533e-04 -7.071045278921e-01 7.071084009908e-01 -9.465107909717e-04 -7.071049279314e-01 7.071079673642e-01 -9.712801797819e-04 -7.071051471635e-01 7.071077125546e-01 -9.968453823146e-04 -7.071052973220e-01 7.071075248565e-01 -1.023127740354e-03 -7.071054098468e-01 7.071073728387e-01 -1.050067846053e-03 -7.071054957138e-01 7.071072455163e-01 -1.077622271649e-03 -7.071055598484e-01 7.071071379412e-01 -1.105759456472e-03 -7.071056055819e-01 7.071070467509e-01 -1.134455771442e-03 -7.071056345250e-01 7.071069702965e-01 -1.163692847963e-03 -7.071056484286e-01 7.071069067872e-01 -1.193454750328e-03 -7.071056479564e-01 7.071068555194e-01 -1.223726099627e-03 -7.071056340961e-01 7.071068154703e-01 -1.254489957092e-03 -7.071056073282e-01 7.071067861327e-01 -1.285725493253e-03 -7.071055680754e-01 7.071067670725e-01 -1.317405425160e-03 -7.071055166249e-01 7.071067580134e-01 -1.349492617106e-03 -7.071054526692e-01 7.071067593068e-01 -1.381936341728e-03 -7.071053740449e-01 7.071067732067e-01 -1.414666729872e-03 -7.071052694332e-01 7.071068111873e-01 -1.447588448708e-03 -7.071050994245e-01 7.071069128972e-01 -1.480574473877e-03 -7.071047165891e-01 7.071072261004e-01 -1.513464250080e-03 -7.071036017091e-01 7.071082703983e-01 -1.546086779297e-03 -7.070999310344e-01 7.071118696902e-01 -1.578377126031e-03 -7.070873839887e-01 7.071243431130e-01 -1.610832396692e-03 -7.070442563043e-01 7.071673845559e-01 -1.646161427109e-03 -7.068966990984e-01 7.073147694374e-01 -1.695210770850e-03 -7.063438038817e-01 7.078660763098e-01 -2.012145057269e-03 7.724971293608e-01 -6.350179436206e-01 6.296103550814e-04 7.729140701336e-01 -6.345103581752e-01 6.675012660969e-04 7.729863644757e-01 -6.344222627219e-01 6.876754040756e-04 7.730027778507e-01 -6.344022443348e-01 7.055622644373e-04 7.730067745076e-01 -6.343973540531e-01 7.236959029009e-04 7.730079234184e-01 -6.343959323740e-01 7.425090890716e-04 7.730083737049e-01 -6.343953605803e-01 7.620081385628e-04 7.730086226023e-01 -6.343950328100e-01 7.821307537785e-04 7.730087942541e-01 -6.343947978107e-01 8.028178046807e-04 7.730089229833e-01 -6.343946137638e-01 8.240240649532e-04 7.730090224113e-01 -6.343944640633e-01 8.457165761229e-04 7.730090979701e-01 -6.343943420735e-01 8.678712814737e-04 7.730091545975e-01 -6.343942417541e-01 8.904704798534e-04 7.730091935300e-01 -6.343941615711e-01 9.135001829501e-04 7.730092173150e-01 -6.343940983915e-01 9.369482780834e-04 7.730092263152e-01 -6.343940517447e-01 9.608030970158e-04 7.730092221515e-01 -6.343940196300e-01 9.850515330090e-04 7.730092046534e-01 -6.343940022358e-01 1.009677313831e-03 7.730091744706e-01 -6.343939987618e-01 1.034659022157e-03 7.730091314293e-01 -6.343940094265e-01 1.059967335566e-03 7.730090745707e-01 -6.343940354280e-01 1.085561952249e-03 7.730090008918e-01 -6.343940804882e-01 1.111387332731e-03 7.730088967973e-01 -6.343941612810e-01 1.137367455727e-03 7.730087185625e-01 -6.343943312512e-01 1.163401360469e-03 7.730083043127e-01 -6.343947878715e-01 1.189363259950e-03 7.730070890319e-01 -6.343962198592e-01 1.215127443491e-03 7.730030861635e-01 -6.344010478295e-01 1.240683106210e-03 7.729894161341e-01 -6.344176529141e-01 1.266576355706e-03 7.729424290975e-01 -6.344748402819e-01 1.295511543250e-03 7.727815438900e-01 -6.346706978159e-01 1.338191621502e-03 7.721774730801e-01 -6.354047846031e-01 1.646138251319e-03 8.309190169861e-01 -5.563931835354e-01 4.610055727475e-04 8.313662707851e-01 -5.557246441831e-01 4.936075771694e-04 8.314435762542e-01 -5.556089631166e-01 5.095195403148e-04 8.314611720454e-01 -5.555826183154e-01 5.230743649088e-04 8.314654947875e-01 -5.555761360773e-01 5.366555707633e-04 8.314667633460e-01 -5.555742238272e-01 5.506993136905e-04 8.314672771745e-01 -5.555734402312e-01 5.652412647780e-04 8.314675681370e-01 -5.555729893114e-01 5.802447824034e-04 8.314677708296e-01 -5.555726696390e-01 5.956692795280e-04 8.314679226600e-01 -5.555724252304e-01 6.114825867657e-04 8.314680406318e-01 -5.555722306318e-01 6.276613090181e-04 8.314681313359e-01 -5.555720759668e-01 6.441884499493e-04 8.314682007861e-01 -5.555719522187e-01 6.610517366827e-04 8.314682511819e-01 -5.555718560772e-01 6.782413928997e-04 8.314682855253e-01 -5.555717830298e-01 6.957490685978e-04 8.314683041387e-01 -5.555717325742e-01 7.135665600351e-04 8.314683086614e-01 -5.555717022399e-01 7.316844088364e-04 8.314682987466e-01 -5.555716925324e-01 7.500906991808e-04 8.314682744010e-01 -5.555717034352e-01 7.687696233024e-04 8.314682348326e-01 -5.555717361368e-01 7.876993045468e-04 8.314681776281e-01 -5.555717942682e-01 8.068490686070e-04 8.314680985315e-01 -5.555718842389e-01 8.261765627993e-04 8.314679814367e-01 -5.555720302229e-01 8.456237956256e-04 8.314677784740e-01 -5.555723039685e-01 8.651142337284e-04 8.314673149618e-01 -5.555729670453e-01 8.845556664362e-04 8.314659849564e-01 -5.555749264369e-01 9.038666939693e-04 8.314616619975e-01 -5.555813644625e-01 9.230873641789e-04 8.314469907862e-01 -5.556032871056e-01 9.427990061734e-04 8.313966730698e-01 -5.556785397064e-01 9.656697849683e-04 8.312243127482e-01 -5.559362709409e-01 1.002271761970e-03 8.305750965975e-01 -5.569051334260e-01 1.296640222800e-03 8.813400281298e-01 -4.724824426468e-01 3.101720243864e-04 8.818121445819e-01 -4.716007079623e-01 3.375165685925e-04 8.818933164156e-01 -4.714488904811e-01 3.494647218023e-04 8.819119291895e-01 -4.714140644858e-01 3.591074472331e-04 8.819165904830e-01 -4.714053367932e-01 3.686104092620e-04 8.819180018017e-01 -4.714026887164e-01 3.783769440657e-04 8.819185968741e-01 -4.714015672260e-01 3.884643062060e-04 8.819189476726e-01 -4.714009022521e-01 3.988633497353e-04 8.819191985133e-01 -4.714004238005e-01 4.095539232168e-04 8.819193895459e-01 -4.714000567548e-01 4.205170210636e-04 8.819195381880e-01 -4.713997685244e-01 4.317376751375e-04 8.819196533233e-01 -4.713995424815e-01 4.432046835042e-04 8.819197421648e-01 -4.713993651212e-01 4.549101393007e-04 8.819198086953e-01 -4.713992289809e-01 4.668479967180e-04 8.819198563067e-01 -4.713991277020e-01 4.790133140880e-04 8.819198862755e-01 -4.713990588840e-01 4.914011565433e-04 8.819198993181e-01 -4.713990211753e-01 5.040056710847e-04 8.819198946174e-01 -4.713990160958e-01 5.168190684476e-04 8.819198706130e-01 -4.713990465600e-01 5.298303586146e-04 8.819198252534e-01 -4.713991164078e-01 5.430238386179e-04 8.819197549881e-01 -4.713992322929e-01 5.563771197443e-04 8.819196538703e-01 -4.713994053640e-01 5.698593915396e-04 8.819195052311e-01 -4.713996668463e-01 5.834296851371e-04 8.819192554028e-01 -4.714001172006e-01 5.970368849802e-04 8.819187149490e-01 -4.714011109024e-01 6.106248235742e-04 8.819172315667e-01 -4.714038683500e-01 6.241556843793e-04 8.819125582633e-01 -4.714125930749e-01 6.377052034489e-04 8.818969786426e-01 -4.714417187298e-01 6.518452326600e-04 8.818439631220e-01 -4.715408539516e-01 6.691486932427e-04 8.816624202409e-01 -4.718801611675e-01 7.001653644476e-04 8.809747326735e-01 -4.731622993412e-01 9.792206077353e-04 9.232762127342e-01 -3.841366962676e-01 1.832478452409e-04 9.237661242781e-01 -3.829570543499e-01 2.053289181291e-04 9.238493128637e-01 -3.827563212802e-01 2.136382433217e-04 9.238687811503e-01 -3.827093242724e-01 2.198425805346e-04 9.238739767249e-01 -3.826967782800e-01 2.258864057032e-04 9.238756721255e-01 -3.826926816682e-01 2.320608787412e-04 9.238763984768e-01 -3.826909242532e-01 2.383942550272e-04 9.238768175572e-01 -3.826899084234e-01 2.448902116540e-04 9.238771195939e-01 -3.826891749351e-01 2.515520298626e-04 9.238773614861e-01 -3.826885864158e-01 2.583807599833e-04 9.238775598341e-01 -3.826881027825e-01 2.653747791124e-04 9.238777210474e-01 -3.826877085552e-01 2.725308131494e-04 9.238778478436e-01 -3.826873971671e-01 2.798451995257e-04 9.238779437376e-01 -3.826871601264e-01 2.873144063009e-04 9.238780105906e-01 -3.826869929334e-01 2.949351446330e-04 9.238780507430e-01 -3.826868899318e-01 3.027039301172e-04 9.238780645392e-01 -3.826868502844e-01 3.106165749029e-04 9.238780527554e-01 -3.826868721134e-01 3.186674762119e-04 9.238780150422e-01 -3.826869562598e-01 3.268489588342e-04 9.238779515867e-01 -3.826871022725e-01 3.351510145287e-04 9.238778612283e-01 -3.826873129568e-01 3.435611384354e-04 9.238777366608e-01 -3.826876059568e-01 3.520647910909e-04 9.238775516005e-01 -3.826880447353e-01 3.606457540143e-04 9.238772238168e-01 -3.826888278235e-01 3.692853055363e-04 9.238765130945e-01 -3.826905351573e-01 3.779594732844e-04 9.238746951377e-01 -3.826949152937e-01 3.866427177161e-04 9.238694599687e-01 -3.827075445001e-01 3.953728849565e-04 9.238530206098e-01 -3.827472176170e-01 4.046189785086e-04 9.237983411420e-01 -3.828791599429e-01 4.168748609183e-04 9.236109047027e-01 -3.833310583438e-01 4.431966165299e-04 9.228922106565e-01 -3.850577356409e-01 7.125535920110e-04 9.563281823183e-01 -2.922950570203e-01 8.570466078172e-05 9.568257620269e-01 -2.906620901357e-01 1.023696356838e-04 9.569065551401e-01 -2.903959936776e-01 1.076381009978e-04 9.569258232945e-01 -2.903324929238e-01 1.107466216443e-04 9.569321623500e-01 -2.903115976094e-01 1.138142170609e-04 9.569350597767e-01 -2.903020455613e-01 1.171029449371e-04 9.569365773377e-01 -2.902970417053e-01 1.205418903136e-04 9.569373838583e-01 -2.902943815900e-01 1.240631709797e-04 9.569378135757e-01 -2.902929634990e-01 1.276400130994e-04 9.569380556039e-01 -2.902921640434e-01 1.312711883270e-04 9.569382092372e-01 -2.902916559018e-01 1.349652558556e-04 9.569383201887e-01 -2.902912883775e-01 1.387318242546e-04 9.569384048849e-01 -2.902910073149e-01 1.425780421185e-04 9.569384677155e-01 -2.902907982380e-01 1.465079525381e-04 9.569385092262e-01 -2.902906593448e-01 1.505230733578e-04 9.569385311150e-01 -2.902905850336e-01 1.546233410894e-04 9.569385361998e-01 -2.902905660122e-01 1.588082943413e-04 9.569385283657e-01 -2.902905894700e-01 1.630782624496e-04 9.569385075576e-01 -2.902906555830e-01 1.674354029163e-04 9.569384638940e-01 -2.902907969192e-01 1.718843006939e-04 9.569383674112e-01 -2.902911122448e-01 1.764312962928e-04 9.569381542454e-01 -2.902918120771e-01 1.810810761259e-04 9.569377109826e-01 -2.902932702755e-01 1.858281412918e-04 9.569368528861e-01 -2.902960958135e-01 1.906407782787e-04 9.569352778099e-01 -2.903012846788e-01 1.954395625023e-04 9.569323578756e-01 -2.903109064660e-01 2.000937470460e-04 9.569262053727e-01 -2.903311826837e-01 2.045300137921e-04 9.569098240492e-01 -2.903851663713e-01 2.092595785186e-04 9.568566034188e-01 -2.905604812733e-01 2.172927751334e-04 9.566686902911e-01 -2.911785682341e-01 2.416978189136e-04 9.559268966154e-01 -2.936042869223e-01 5.394702833382e-04 9.801877152861e-01 -1.980708011333e-01 2.325238605266e-05 9.806836162087e-01 -1.956007255944e-01 3.235277480856e-05 9.807528160926e-01 -1.952534568245e-01 3.639242821405e-05 9.807633154444e-01 -1.952007112407e-01 3.754518919618e-05 9.807669869996e-01 -1.951822629373e-01 3.803173634036e-05 9.807712123651e-01 -1.951610296698e-01 3.865333375975e-05 9.807756245838e-01 -1.951388548126e-01 3.955686469319e-05 9.807793782922e-01 -1.951199873407e-01 4.070526438660e-05 9.807821328760e-01 -1.951061405101e-01 4.203030805822e-05 9.807839149510e-01 -1.950971816392e-01 4.347285539495e-05 9.807849109038e-01 -1.950921744181e-01 4.499037797729e-05 9.807853415473e-01 -1.950900090691e-01 4.655577853722e-05 9.807854027340e-01 -1.950897010738e-01 4.815425620376e-05 9.807852428622e-01 -1.950905043967e-01 4.978009947741e-05 9.807849579827e-01 -1.950919361466e-01 5.143372366776e-05 9.807845935124e-01 -1.950937679865e-01 5.311891833011e-05 9.807841473391e-01 -1.950960105202e-01 5.484002571066e-05 9.807835736364e-01 -1.950988941064e-01 5.659869048108e-05 9.807827880406e-01 -1.951028428135e-01 5.838973465254e-05 9.807816766666e-01 -1.951084290632e-01 6.019581778624e-05 9.807801150315e-01 -1.951162784524e-01 6.198077602655e-05 9.807780039946e-01 -1.951268890362e-01 6.368265642624e-05 9.807753336322e-01 -1.951403102547e-01 6.521009464924e-05 9.807722765107e-01 -1.951556743020e-01 6.645124448532e-05 9.807692699884e-01 -1.951707829448e-01 6.731422269937e-05 9.807668767761e-01 -1.951828087137e-01 6.783395121194e-05 9.807646381672e-01 -1.951940568782e-01 6.841204486615e-05 9.807562922440e-01 -1.952359861037e-01 7.038479705742e-05 9.807129381906e-01 -1.954536435904e-01 7.792869744067e-05 9.805275074632e-01 -1.963817580738e-01 1.104709657541e-04 9.797574339524e-01 -2.001480755426e-01 4.014781641457e-03 9.944565848267e-01 -1.051479951997e-01 -5.786894415340e-07 9.951175324851e-01 -9.869699357450e-02 2.563192166482e-07 9.952511174630e-01 -9.734070673827e-02 5.638552348455e-07 9.952648860734e-01 -9.719982792549e-02 7.029294401016e-07 9.952483893315e-01 -9.736859623417e-02 7.290403563542e-07 9.952275714921e-01 -9.758115054369e-02 6.817191371652e-07 9.952095266014e-01 -9.776501501826e-02 5.989159212284e-07 9.951955750704e-01 -9.790693213490e-02 5.084372024695e-07 9.951853457178e-01 -9.801085485007e-02 4.254138995639e-07 9.951780874879e-01 -9.808452571072e-02 3.557524438475e-07 9.951730803583e-01 -9.813531540718e-02 3.004111945218e-07 9.951697462209e-01 -9.816912043305e-02 2.583006086478e-07 9.951676603124e-01 -9.819026361271e-02 2.278051777447e-07 9.951665353850e-01 -9.820166419073e-02 2.074595488142e-07 9.951662016899e-01 -9.820504576662e-02 1.962049710044e-07 9.951665919416e-01 -9.820109104931e-02 1.934662575956e-07 9.951677326467e-01 -9.818953049467e-02 1.991705200942e-07 9.951697417130e-01 -9.816916613062e-02 2.137626796612e-07 9.951728314379e-01 -9.813783963251e-02 2.382520716444e-07 9.951773142592e-01 -9.809237067072e-02 2.743180825301e-07 9.951836054686e-01 -9.802852343283e-02 3.245224957358e-07 9.951922106242e-01 -9.794112472714e-02 3.927117615789e-07 9.952036700856e-01 -9.782461371243e-02 4.847985080049e-07 9.952183954531e-01 -9.767469145819e-02 6.103496711863e-07 9.952362426898e-01 -9.749267273012e-02 7.860718688137e-07 9.952554396254e-01 -9.729650505001e-02 1.044442504299e-06 9.952698899111e-01 -9.714857813757e-02 1.459379570938e-06 9.952622421763e-01 -9.722689593501e-02 2.251071159791e-06 9.951852831314e-01 -9.801149022937e-02 4.661777770846e-06 5.285139097250e-06 -5.463268306813e-07 9.999999999859e-01 2.382229545806e-04 -2.699644367342e-05 9.999999712605e-01 9.999715010234e-01 7.549644617477e-03 -2.686826218854e-06 9.999961183301e-01 -2.786274327751e-03 8.967986725668e-08 9.999893780100e-01 -4.609106947062e-03 5.414067629358e-07 9.999900185142e-01 -4.467982829698e-03 1.150024924740e-06 9.999926127820e-01 -3.843745208697e-03 2.057104754456e-06 9.999949589350e-01 -3.175229765838e-03 4.525881865799e-06 2.939668292825e-05 -8.673412782595e-08 9.999999995679e-01 3.098292322381e-06 -1.544940545013e-08 9.999999999952e-01 1.491208070922e-06 -1.006759145780e-08 9.999999999989e-01 9.156788639229e-07 -7.669083429001e-09 9.999999999996e-01 6.297672239541e-07 -6.238276549965e-09 9.999999999998e-01 4.680709136457e-07 -5.304383488966e-09 9.999999999999e-01 3.724432488005e-07 -4.692038196684e-09 9.999999999999e-01 3.175808250507e-07 -4.321674494196e-09 9.999999999999e-01 2.916247967892e-07 -4.156790508654e-09 1.000000000000e+00 2.897797855233e-07 -4.186418270611e-09 1.000000000000e+00 3.122498292795e-07 -4.419536371364e-09 1.000000000000e+00 3.642704527965e-07 -4.885455955302e-09 9.999999999999e-01 4.581200594188e-07 -5.639796947553e-09 9.999999999999e-01 6.187270026660e-07 -6.780044168300e-09 9.999999999998e-01 8.990342950255e-07 -8.485973685207e-09 9.999999999996e-01 1.430694265050e-06 -1.114753747241e-08 9.999999999990e-01 2.663461415866e-06 -1.595581420571e-08 9.999999999965e-01 7.977718214202e-06 -3.131202225135e-08 9.999999999682e-01 9.999964982426e-01 -2.646379732583e-03 1.329472917760e-05 9.999949545098e-01 -3.176623960097e-03 3.894235463302e-06 9.999931223905e-01 -3.708795925716e-03 2.130998445481e-06 9.999917594699e-01 -4.059678666477e-03 1.181123396577e-06 9.999930050444e-01 -3.740302412370e-03 4.736546416150e-07 9.999988845754e-01 -1.493602320228e-03 3.165461467613e-08 9.999808566828e-01 6.187588360569e-03 -4.263894342649e-06 
        </DataArray>
      </PointData>
      <CellData>
        <DataArray type="Int32" Name="MatGroup" format="ascii">
          0 0 0 0 0 0 0 0 0 0 0 0 0 0 0 0 0 0 0 0 0 0 0 0 0 0 0 0 0 0 0 0 0 0 0 0 0 0 0 0 0 0 0 0 0 0 0 0 0 0 0 0 0 0 0 0 0 0 0 0 0 0 0 0 0 0 0 0 0 0 0 0 0 0 0 0 0 0 0 0 0 0 0 0 0 0 0 0 0 0 0 0 0 0 0 0 0 0 0 0 0 0 0 0 0 0 0 0 0 0 0 0 0 0 0 0 0 0 0 0 0 0 0 0 0 0 0 0 0 0 0 0 0 0 0 0 0 0 0 0 0 0 0 0 0 0 0 0 0 0 0 0 0 0 0 0 0 0 0 0 0 0 0 0 0 0 0 0 0 0 0 0 0 0 0 0 0 0 0 0 0 0 0 0 0 0 0 0 0 0 0 0 0 0 0 0 0 0 0 0 0 0 0 0 0 0 0 0 0 0 0 0 0 0 0 0 0 0 0 0 0 0 0 0 0 0 0 0 0 0 0 0 0 0 0 0 0 0 0 0 0 0 0 0 0 0 0 0 0 0 0 0 0 0 0 0 0 0 0 0 0 0 0 0 0 0 0 0 0 0 0 0 0 0 0 0 0 0 0 0 0 0 0 0 0 0 0 0 0 0 0 0 0 0 0 0 0 0 0 0 0 0 0 0 0 0 0 0 0 0 0 0 0 0 0 0 0 0 0 0 0 0 0 0 0 0 0 0 0 0 0 0 0 0 0 0 0 0 0 0 0 0 0 0 0 0 0 0 0 0 0 0 0 0 0 0 0 0 0 0 0 0 0 0 0 0 0 0 0 0 0 0 0 0 0 0 0 0 0 0 0 0 0 0 0 0 0 0 0 0 0 0 0 0 0 0 0 0 0 0 0 0 0 0 0 0 0 0 0 0 0 0 0 0 0 0 0 0 0 0 0 0 0 0 0 0 0 0 0 0 0 0 0 0 0 0 0 0 0 0 0 0 0 0 0 0 0 0 0 0 0 0 0 0 0 0 0 0 0 0 0 0 0 0 0 0 0 0 0 0 0 0 0 0 0 0 0 0 0 0 
        </DataArray>
      </CellData>
    </Piece>
  </UnstructuredGrid>
</VTKFile>
