<?xml version="1.0"?>
<!-- Time step: 1 | Time: 1.000000000000e+00 -->
<VTKFile type="UnstructuredGrid" version="0.1" byte_order="LittleEndian">
  <UnstructuredGrid>
    <Piece NumberOfPoints="527" NumberOfCells="480">
      <Points>
        <DataArray type="Float64" NumberOfComponents="3" format="ascii">
          1.750000000000e-01 0.000000000000e+00 0.000000000000e+00
          1.766666666667e-01 0.000000000000e+00 0.000000000000e+00
          1.783333333333e-01 0.000000000000e+00 0.000000000000e+00
          1.800000000000e-01 0.000000000000e+00 0.000000000000e+00
          1.816666666667e-01 0.000000000000e+00 0.000000000000e+00
          1.833333333333e-01 0.000000000000e+00 0.000000000000e+00
          1.850000000000e-01 0.000000000000e+00 0.000000000000e+00
          1.866666666667e-01 0.000000000000e+00 0.000000000000e+00
          1.883333333333e-01 0.000000000000e+00 0.000000000000e+00
          1.900000000000e-01 0.000000000000e+00 0.000000000000e+00
          1.916666666667e-01 0.000000000000e+00 0.000000000000e+00
          1.933333333333e-01 0.000000000000e+00 0.000000000000e+00
          1.950000000000e-01 0.000000000000e+00 0.000000000000e+00
          1.966666666667e-01 0.000000000000e+00 0.000000000000e+00
          1.983333333333e-01 0.000000000000e+00 0.000000000000e+00
          2.000000000000e-01 0.000000000000e+00 0.000000000000e+00
          2.016666666667e-01 0.000000000000e+00 0.000000000000e+00
          2.033333333333e-01 0.000000000000e+00 0.000000000000e+00
          2.050000000000e-01 0.000000000000e+00 0.000000000000e+00
          2.066666666667e-01 0.000000000000e+00 0.000000000000e+00
          2.083333333333e-01 0.000000000000e+00 0.000000000000e+00
          2.100000000000e-01 0.000000000000e+00 0.000000000000e+00
          2.116666666667e-01 0.000000000000e+00 0.000000000000e+00
          2.133333333333e-01 0.000000000000e+00 0.000000000000e+00
          2.150000000000e-01 0.000000000000e+00 0.000000000000e+00
          2.166666666667e-01 0.000000000000e+00 0.000000000000e+00
          2.183333333333e-01 0.000000000000e+00 0.000000000000e+00
          2.200000000000e-01 0.000000000000e+00 0.000000000000e+00
          2.216666666667e-01 0.000000000000e+00 0.000000000000e+00
          2.233333333333e-01 0.000000000000e+00 0.000000000000e+00
          2.250000000000e-01 0.000000000000e+00 0.000000000000e+00
          1.741573271428e-01 1.715299981026e-02 0.000000000000e+00
          1.758159683536e-01 1.731636171321e-02 0.000000000000e+00
          1.774746095645e-01 1.747972361617e-02 0.000000000000e+00
          1.791332507754e-01 1.764308551912e-02 0.000000000000e+00
          1.807918919863e-01 1.780644742208e-02 0.000000000000e+00
          1.824505331972e-01 1.796980932503e-02 0.000000000000e+00
          1.841091744081e-01 1.813317122799e-02 0.000000000000e+00
          1.857678156189e-01 1.829653313094e-02 0.000000000000e+00
          1.874264568298e-01 1.845989503390e-02 0.000000000000e+00
          1.890850980407e-01 1.862325693685e-02 0.000000000000e+00
          1.907437392516e-01 1.878661883981e-02 0.000000000000e+00
          1.924023804625e-01 1.894998074276e-02 0.000000000000e+00
          1.940610216734e-01 1.911334264571e-02 0.000000000000e+00
          1.957196628842e-01 1.927670454867e-02 0.000000000000e+00
          1.973783040951e-01 1.944006645162e-02 0.000000000000e+00
          1.990369453060e-01 1.960342835458e-02 0.000000000000e+00
          2.006955865169e-01 1.976679025753e-02 0.000000000000e+00
          2.023542277278e-01 1.993015216049e-02 0.000000000000e+00
          2.040128689387e-01 2.009351406344e-02 0.000000000000e+00
          2.056715101495e-01 2.025687596640e-02 0.000000000000e+00
          2.073301513604e-01 2.042023786935e-02 0.000000000000e+00
          2.089887925713e-01 2.058359977231e-02 0.000000000000e+00
          2.106474337822e-01 2.074696167526e-02 0.000000000000e+00
          2.123060749931e-01 2.091032357822e-02 0.000000000000e+00
          2.139647162040e-01 2.107368548117e-02 0.000000000000e+00
          2.156233574148e-01 2.123704738413e-02 0.000000000000e+00
          2.172819986257e-01 2.140040928708e-02 0.000000000000e+00
          2.189406398366e-01 2.156377119004e-02 0.000000000000e+00
          2.205992810475e-01 2.172713309299e-02 0.000000000000e+00
          2.222579222584e-01 2.189049499595e-02 0.000000000000e+00
          2.239165634693e-01 2.205385689890e-02 0.000000000000e+00
          1.716374239715e-01 3.414080685068e-02 0.000000000000e+00
          1.732720661046e-01 3.446595739212e-02 0.000000000000e+00
          1.749067082377e-01 3.479110793355e-02 0.000000000000e+00
          1.765413503707e-01 3.511625847499e-02 0.000000000000e+00
          1.781759925038e-01 3.544140901642e-02 0.000000000000e+00
          1.798106346368e-01 3.576655955786e-02 0.000000000000e+00
          1.814452767699e-01 3.609171009929e-02 0.000000000000e+00
          1.830799189030e-01 3.641686064073e-02 0.000000000000e+00
          1.847145610360e-01 3.674201118216e-02 0.000000000000e+00
          1.863492031691e-01 3.706716172360e-02 0.000000000000e+00
          1.879838453022e-01 3.739231226503e-02 0.000000000000e+00
          1.896184874352e-01 3.771746280647e-02 0.000000000000e+00
          1.912531295683e-01 3.804261334790e-02 0.000000000000e+00
          1.928877717013e-01 3.836776388934e-02 0.000000000000e+00
          1.945224138344e-01 3.869291443077e-02 0.000000000000e+00
          1.961570559675e-01 3.901806497221e-02 0.000000000000e+00
          1.977916981005e-01 3.934321551364e-02 0.000000000000e+00
          1.994263402336e-01 3.966836605508e-02 0.000000000000e+00
          2.010609823667e-01 3.999351659651e-02 0.000000000000e+00
          2.026956244997e-01 4.031866713795e-02 0.000000000000e+00
          2.043302666328e-01 4.064381767938e-02 0.000000000000e+00
          2.059649087658e-01 4.096896822082e-02 0.000000000000e+00
          2.075995508989e-01 4.129411876225e-02 0.000000000000e+00
          2.092341930320e-01 4.161926930369e-02 0.000000000000e+00
          2.108688351650e-01 4.194441984512e-02 0.000000000000e+00
          2.125034772981e-01 4.226957038656e-02 0.000000000000e+00
          2.141381194312e-01 4.259472092799e-02 0.000000000000e+00
          2.157727615642e-01 4.291987146943e-02 0.000000000000e+00
          2.174074036973e-01 4.324502201086e-02 0.000000000000e+00
          2.190420458303e-01 4.357017255230e-02 0.000000000000e+00
          2.206766879634e-01 4.389532309373e-02 0.000000000000e+00
          1.674645585321e-01 5.079981924816e-02 0.000000000000e+00
          1.690594590896e-01 5.128362705053e-02 0.000000000000e+00
          1.706543596470e-01 5.176743485289e-02 0.000000000000e+00
          1.722492602045e-01 5.225124265525e-02 0.000000000000e+00
          1.738441607619e-01 5.273505045762e-02 0.000000000000e+00
          1.754390613194e-01 5.321885825998e-02 0.000000000000e+00
          1.770339618768e-01 5.370266606234e-02 0.000000000000e+00
          1.786288624342e-01 5.418647386471e-02 0.000000000000e+00
          1.802237629917e-01 5.467028166707e-02 0.000000000000e+00
          1.818186635491e-01 5.515408946943e-02 0.000000000000e+00
          1.834135641066e-01 5.563789727180e-02 0.000000000000e+00
          1.850084646640e-01 5.612170507416e-02 0.000000000000e+00
          1.866033652215e-01 5.660551287652e-02 0.000000000000e+00
          1.881982657789e-01 5.708932067889e-02 0.000000000000e+00
          1.897931663364e-01 5.757312848125e-02 0.000000000000e+00
          1.913880668938e-01 5.805693628361e-02 0.000000000000e+00
          1.929829674513e-01 5.854074408598e-02 0.000000000000e+00
          1.945778680087e-01 5.902455188834e-02 0.000000000000e+00
          1.961727685662e-01 5.950835969070e-02 0.000000000000e+00
          1.977676691236e-01 5.999216749307e-02 0.000000000000e+00
          1.993625696811e-01 6.047597529543e-02 0.000000000000e+00
          2.009574702385e-01 6.095978309779e-02 0.000000000000e+00
          2.025523707960e-01 6.144359090016e-02 0.000000000000e+00
          2.041472713534e-01 6.192739870252e-02 0.000000000000e+00
          2.057421719109e-01 6.241120650488e-02 0.000000000000e+00
          2.073370724683e-01 6.289501430725e-02 0.000000000000e+00
          2.089319730258e-01 6.337882210961e-02 0.000000000000e+00
          2.105268735832e-01 6.386262991198e-02 0.000000000000e+00
          2.121217741407e-01 6.434643771434e-02 0.000000000000e+00
          2.137166746981e-01 6.483024551670e-02 0.000000000000e+00
          2.153115752556e-01 6.531405331907e-02 0.000000000000e+00
          1.616789178010e-01 6.696960160183e-02 0.000000000000e+00
          1.632187170181e-01 6.760740733138e-02 0.000000000000e+00
          1.647585162353e-01 6.824521306092e-02 0.000000000000e+00
          1.662983154524e-01 6.888301879046e-02 0.000000000000e+00
          1.678381146696e-01 6.952082452000e-02 0.000000000000e+00
          1.693779138867e-01 7.015863024954e-02 0.000000000000e+00
          1.709177131039e-01 7.079643597908e-02 0.000000000000e+00
          1.724575123210e-01 7.143424170862e-02 0.000000000000e+00
          1.739973115382e-01 7.207204743817e-02 0.000000000000e+00
          1.755371107553e-01 7.270985316771e-02 0.000000000000e+00
          1.770769099725e-01 7.334765889725e-02 0.000000000000e+00
          1.786167091896e-01 7.398546462679e-02 0.000000000000e+00
          1.801565084068e-01 7.462327035633e-02 0.000000000000e+00
          1.816963076239e-01 7.526107608587e-02 0.000000000000e+00
          1.832361068411e-01 7.589888181541e-02 0.000000000000e+00
          1.847759060582e-01 7.653668754495e-02 0.000000000000e+00
          1.863157052754e-01 7.717449327450e-02 0.000000000000e+00
          1.878555044926e-01 7.781229900404e-02 0.000000000000e+00
          1.893953037097e-01 7.845010473358e-02 0.000000000000e+00
          1.909351029269e-01 7.908791046312e-02 0.000000000000e+00
          1.924749021440e-01 7.972571619266e-02 0.000000000000e+00
          1.940147013612e-01 8.036352192220e-02 0.000000000000e+00
          1.955545005783e-01 8.100132765174e-02 0.000000000000e+00
          1.970942997955e-01 8.163913338128e-02 0.000000000000e+00
          1.986340990126e-01 8.227693911083e-02 0.000000000000e+00
          2.001738982298e-01 8.291474484037e-02 0.000000000000e+00
          2.017136974469e-01 8.355255056991e-02 0.000000000000e+00
          2.032534966641e-01 8.419035629945e-02 0.000000000000e+00
          2.047932958812e-01 8.482816202899e-02 0.000000000000e+00
          2.063330950984e-01 8.546596775853e-02 0.000000000000e+00
          2.078728943155e-01 8.610377348807e-02 0.000000000000e+00
          1.543362206627e-01 8.249443006373e-02 0.000000000000e+00
          1.558060894310e-01 8.328009130244e-02 0.000000000000e+00
          1.572759581992e-01 8.406575254114e-02 0.000000000000e+00
          1.587458269674e-01 8.485141377984e-02 0.000000000000e+00
          1.602156957356e-01 8.563707501854e-02 0.000000000000e+00
          1.616855645038e-01 8.642273625724e-02 0.000000000000e+00
          1.631554332720e-01 8.720839749595e-02 0.000000000000e+00
          1.646253020403e-01 8.799405873465e-02 0.000000000000e+00
          1.660951708085e-01 8.877971997335e-02 0.000000000000e+00
          1.675650395767e-01 8.956538121205e-02 0.000000000000e+00
          1.690349083449e-01 9.035104245076e-02 0.000000000000e+00
          1.705047771131e-01 9.113670368946e-02 0.000000000000e+00
          1.719746458813e-01 9.192236492816e-02 0.000000000000e+00
          1.734445146496e-01 9.270802616686e-02 0.000000000000e+00
          1.749143834178e-01 9.349368740556e-02 0.000000000000e+00
          1.763842521860e-01 9.427934864427e-02 0.000000000000e+00
          1.778541209542e-01 9.506500988297e-02 0.000000000000e+00
          1.793239897224e-01 9.585067112167e-02 0.000000000000e+00
          1.807938584906e-01 9.663633236037e-02 0.000000000000e+00
          1.822637272589e-01 9.742199359908e-02 0.000000000000e+00
          1.837335960271e-01 9.820765483778e-02 0.000000000000e+00
          1.852034647953e-01 9.899331607648e-02 0.000000000000e+00
          1.866733335635e-01 9.977897731518e-02 0.000000000000e+00
          1.881432023317e-01 1.005646385539e-01 0.000000000000e+00
          1.896130710999e-01 1.013502997926e-01 0.000000000000e+00
          1.910829398682e-01 1.021359610313e-01 0.000000000000e+00
          1.925528086364e-01 1.029216222700e-01 0.000000000000e+00
          1.940226774046e-01 1.037072835087e-01 0.000000000000e+00
          1.954925461728e-01 1.044929447474e-01 0.000000000000e+00
          1.969624149410e-01 1.052786059861e-01 0.000000000000e+00
          1.984322837092e-01 1.060642672248e-01 0.000000000000e+00
          1.455071813069e-01 9.722479204462e-02 0.000000000000e+00
          1.468929639860e-01 9.815074244505e-02 0.000000000000e+00
          1.482787466651e-01 9.907669284547e-02 0.000000000000e+00
          1.496645293442e-01 1.000026432459e-01 0.000000000000e+00
          1.510503120234e-01 1.009285936463e-01 0.000000000000e+00
          1.524360947025e-01 1.018545440467e-01 0.000000000000e+00
          1.538218773816e-01 1.027804944472e-01 0.000000000000e+00
          1.552076600607e-01 1.037064448476e-01 0.000000000000e+00
          1.565934427398e-01 1.046323952480e-01 0.000000000000e+00
          1.579792254189e-01 1.055583456484e-01 0.000000000000e+00
          1.593650080980e-01 1.064842960489e-01 0.000000000000e+00
          1.607507907772e-01 1.074102464493e-01 0.000000000000e+00
          1.621365734563e-01 1.083361968497e-01 0.000000000000e+00
          1.635223561354e-01 1.092621472501e-01 0.000000000000e+00
          1.649081388145e-01 1.101880976506e-01 0.000000000000e+00
          1.662939214936e-01 1.111140480510e-01 0.000000000000e+00
          1.676797041727e-01 1.120399984514e-01 0.000000000000e+00
          1.690654868518e-01 1.129659488518e-01 0.000000000000e+00
          1.704512695309e-01 1.138918992523e-01 0.000000000000e+00
          1.718370522101e-01 1.148178496527e-01 0.000000000000e+00
          1.732228348892e-01 1.157438000531e-01 0.000000000000e+00
          1.746086175683e-01 1.166697504535e-01 0.000000000000e+00
          1.759944002474e-01 1.175957008540e-01 0.000000000000e+00
          1.773801829265e-01 1.185216512544e-01 0.000000000000e+00
          1.787659656056e-01 1.194476016548e-01 0.000000000000e+00
          1.801517482847e-01 1.203735520552e-01 0.000000000000e+00
          1.815375309639e-01 1.212995024557e-01 0.000000000000e+00
          1.829233136430e-01 1.222254528561e-01 0.000000000000e+00
          1.843090963221e-01 1.231514032565e-01 0.000000000000e+00
          1.856948790012e-01 1.240773536569e-01 0.000000000000e+00
          1.870806616803e-01 1.250033040574e-01 0.000000000000e+00
          1.352768282114e-01 1.110188261020e-01 0.000000000000e+00
          1.365651789563e-01 1.120761482554e-01 0.000000000000e+00
          1.378535297011e-01 1.131334704087e-01 0.000000000000e+00
          1.391418804460e-01 1.141907925621e-01 0.000000000000e+00
          1.404302311909e-01 1.152481147154e-01 0.000000000000e+00
          1.417185819357e-01 1.163054368688e-01 0.000000000000e+00
          1.430069326806e-01 1.173627590221e-01 0.000000000000e+00
          1.442952834255e-01 1.184200811755e-01 0.000000000000e+00
          1.455836341704e-01 1.194774033288e-01 0.000000000000e+00
          1.468719849152e-01 1.205347254822e-01 0.000000000000e+00
          1.481603356601e-01 1.215920476355e-01 0.000000000000e+00
          1.494486864050e-01 1.226493697889e-01 0.000000000000e+00
          1.507370371498e-01 1.237066919422e-01 0.000000000000e+00
          1.520253878947e-01 1.247640140956e-01 0.000000000000e+00
          1.533137386396e-01 1.258213362489e-01 0.000000000000e+00
          1.546020893844e-01 1.268786584023e-01 0.000000000000e+00
          1.558904401293e-01 1.279359805556e-01 0.000000000000e+00
          1.571787908742e-01 1.289933027090e-01 0.000000000000e+00
          1.584671416191e-01 1.300506248623e-01 0.000000000000e+00
          1.597554923639e-01 1.311079470157e-01 0.000000000000e+00
          1.610438431088e-01 1.321652691690e-01 0.000000000000e+00
          1.623321938537e-01 1.332225913224e-01 0.000000000000e+00
          1.636205445985e-01 1.342799134758e-01 0.000000000000e+00
          1.649088953434e-01 1.353372356291e-01 0.000000000000e+00
          1.661972460883e-01 1.363945577825e-01 0.000000000000e+00
          1.674855968332e-01 1.374518799358e-01 0.000000000000e+00
          1.687739475780e-01 1.385092020892e-01 0.000000000000e+00
          1.700622983229e-01 1.395665242425e-01 0.000000000000e+00
          1.713506490678e-01 1.406238463959e-01 0.000000000000e+00
          1.726389998126e-01 1.416811685492e-01 0.000000000000e+00
          1.739273505575e-01 1.427384907026e-01 0.000000000000e+00
          1.237436852719e-01 1.237436881434e-01 0.000000000000e+00
          1.249221965602e-01 1.249221994590e-01 0.000000000000e+00
          1.261007078485e-01 1.261007107747e-01 0.000000000000e+00
          1.272792191368e-01 1.272792220903e-01 0.000000000000e+00
          1.284577304251e-01 1.284577334060e-01 0.000000000000e+00
          1.296362417134e-01 1.296362447216e-01 0.000000000000e+00
          1.308147530017e-01 1.308147560373e-01 0.000000000000e+00
          1.319932642900e-01 1.319932673529e-01 0.000000000000e+00
          1.331717755783e-01 1.331717786686e-01 0.000000000000e+00
          1.343502868666e-01 1.343502899842e-01 0.000000000000e+00
          1.355287981549e-01 1.355288012999e-01 0.000000000000e+00
          1.367073094432e-01 1.367073126156e-01 0.000000000000e+00
          1.378858207315e-01 1.378858239312e-01 0.000000000000e+00
          1.390643320199e-01 1.390643352469e-01 0.000000000000e+00
          1.402428433082e-01 1.402428465625e-01 0.000000000000e+00
          1.414213545965e-01 1.414213578782e-01 0.000000000000e+00
          1.425998658848e-01 1.425998691938e-01 0.000000000000e+00
          1.437783771731e-01 1.437783805095e-01 0.000000000000e+00
          1.449568884614e-01 1.449568918251e-01 0.000000000000e+00
          1.461353997497e-01 1.461354031408e-01 0.000000000000e+00
          1.473139110380e-01 1.473139144564e-01 0.000000000000e+00
          1.484924223263e-01 1.484924257721e-01 0.000000000000e+00
          1.496709336146e-01 1.496709370877e-01 0.000000000000e+00
          1.508494449029e-01 1.508494484034e-01 0.000000000000e+00
          1.520279561912e-01 1.520279597190e-01 0.000000000000e+00
          1.532064674795e-01 1.532064710347e-01 0.000000000000e+00
          1.543849787678e-01 1.543849823503e-01 0.000000000000e+00
          1.555634900561e-01 1.555634936660e-01 0.000000000000e+00
          1.567420013444e-01 1.567420049816e-01 0.000000000000e+00
          1.579205126327e-01 1.579205162973e-01 0.000000000000e+00
          1.590990239210e-01 1.590990276129e-01 0.000000000000e+00
          1.110188229629e-01 1.352768307876e-01 0.000000000000e+00
          1.120761450863e-01 1.365651815570e-01 0.000000000000e+00
          1.131334672098e-01 1.378535323264e-01 0.000000000000e+00
          1.141907893333e-01 1.391418830958e-01 0.000000000000e+00
          1.152481114567e-01 1.404302338652e-01 0.000000000000e+00
          1.163054335802e-01 1.417185846346e-01 0.000000000000e+00
          1.173627557036e-01 1.430069354040e-01 0.000000000000e+00
          1.184200778271e-01 1.442952861734e-01 0.000000000000e+00
          1.194773999505e-01 1.455836369428e-01 0.000000000000e+00
          1.205347220740e-01 1.468719877122e-01 0.000000000000e+00
          1.215920441974e-01 1.481603384817e-01 0.000000000000e+00
          1.226493663209e-01 1.494486892511e-01 0.000000000000e+00
          1.237066884444e-01 1.507370400205e-01 0.000000000000e+00
          1.247640105678e-01 1.520253907899e-01 0.000000000000e+00
          1.258213326913e-01 1.533137415593e-01 0.000000000000e+00
          1.268786548147e-01 1.546020923287e-01 0.000000000000e+00
          1.279359769382e-01 1.558904430981e-01 0.000000000000e+00
          1.289932990616e-01 1.571787938675e-01 0.000000000000e+00
          1.300506211851e-01 1.584671446369e-01 0.000000000000e+00
          1.311079433086e-01 1.597554954063e-01 0.000000000000e+00
          1.321652654320e-01 1.610438461757e-01 0.000000000000e+00
          1.332225875555e-01 1.623321969451e-01 0.000000000000e+00
          1.342799096789e-01 1.636205477145e-01 0.000000000000e+00
          1.353372318024e-01 1.649088984839e-01 0.000000000000e+00
          1.363945539258e-01 1.661972492533e-01 0.000000000000e+00
          1.374518760493e-01 1.674856000227e-01 0.000000000000e+00
          1.385091981727e-01 1.687739507921e-01 0.000000000000e+00
          1.395665202962e-01 1.700623015615e-01 0.000000000000e+00
          1.406238424197e-01 1.713506523310e-01 0.000000000000e+00
          1.416811645431e-01 1.726390031004e-01 0.000000000000e+00
          1.427384866666e-01 1.739273538698e-01 0.000000000000e+00
          9.722478866811e-02 1.455071835630e-01 0.000000000000e+00
          9.815073903638e-02 1.468929662636e-01 0.000000000000e+00
          9.907668940465e-02 1.482787489642e-01 0.000000000000e+00
          1.000026397729e-01 1.496645316648e-01 0.000000000000e+00
          1.009285901412e-01 1.510503143654e-01 0.000000000000e+00
          1.018545405095e-01 1.524360970660e-01 0.000000000000e+00
          1.027804908777e-01 1.538218797666e-01 0.000000000000e+00
          1.037064412460e-01 1.552076624672e-01 0.000000000000e+00
          1.046323916143e-01 1.565934451678e-01 0.000000000000e+00
          1.055583419825e-01 1.579792278684e-01 0.000000000000e+00
          1.064842923508e-01 1.593650105690e-01 0.000000000000e+00
          1.074102427191e-01 1.607507932696e-01 0.000000000000e+00
          1.083361930873e-01 1.621365759702e-01 0.000000000000e+00
          1.092621434556e-01 1.635223586708e-01 0.000000000000e+00
          1.101880938239e-01 1.649081413714e-01 0.000000000000e+00
          1.111140441921e-01 1.662939240720e-01 0.000000000000e+00
          1.120399945604e-01 1.676797067726e-01 0.000000000000e+00
          1.129659449287e-01 1.690654894732e-01 0.000000000000e+00
          1.138918952969e-01 1.704512721738e-01 0.000000000000e+00
          1.148178456652e-01 1.718370548744e-01 0.000000000000e+00
          1.157437960335e-01 1.732228375750e-01 0.000000000000e+00
          1.166697464017e-01 1.746086202756e-01 0.000000000000e+00
          1.175956967700e-01 1.759944029762e-01 0.000000000000e+00
          1.185216471383e-01 1.773801856768e-01 0.000000000000e+00
          1.194475975065e-01 1.787659683774e-01 0.000000000000e+00
          1.203735478748e-01 1.801517510780e-01 0.000000000000e+00
          1.212994982431e-01 1.815375337786e-01 0.000000000000e+00
          1.222254486113e-01 1.829233164792e-01 0.000000000000e+00
          1.231513989796e-01 1.843090991798e-01 0.000000000000e+00
          1.240773493479e-01 1.856948818804e-01 0.000000000000e+00
          1.250032997161e-01 1.870806645810e-01 0.000000000000e+00
          8.249442648235e-02 1.543362225770e-01 0.000000000000e+00
          8.328008768694e-02 1.558060913635e-01 0.000000000000e+00
          8.406574889153e-02 1.572759601499e-01 0.000000000000e+00
          8.485141009613e-02 1.587458289364e-01 0.000000000000e+00
          8.563707130072e-02 1.602156977228e-01 0.000000000000e+00
          8.642273250531e-02 1.616855665093e-01 0.000000000000e+00
          8.720839370991e-02 1.631554352957e-01 0.000000000000e+00
          8.799405491450e-02 1.646253040822e-01 0.000000000000e+00
          8.877971611910e-02 1.660951728686e-01 0.000000000000e+00
          8.956537732369e-02 1.675650416551e-01 0.000000000000e+00
          9.035103852828e-02 1.690349104415e-01 0.000000000000e+00
          9.113669973288e-02 1.705047792280e-01 0.000000000000e+00
          9.192236093747e-02 1.719746480144e-01 0.000000000000e+00
          9.270802214206e-02 1.734445168009e-01 0.000000000000e+00
          9.349368334666e-02 1.749143855873e-01 0.000000000000e+00
          9.427934455125e-02 1.763842543738e-01 0.000000000000e+00
          9.506500575585e-02 1.778541231602e-01 0.000000000000e+00
          9.585066696044e-02 1.793239919467e-01 0.000000000000e+00
          9.663632816503e-02 1.807938607331e-01 0.000000000000e+00
          9.742198936963e-02 1.822637295195e-01 0.000000000000e+00
          9.820765057422e-02 1.837335983060e-01 0.000000000000e+00
          9.899331177881e-02 1.852034670924e-01 0.000000000000e+00
          9.977897298341e-02 1.866733358789e-01 0.000000000000e+00
          1.005646341880e-01 1.881432046653e-01 0.000000000000e+00
          1.013502953926e-01 1.896130734518e-01 0.000000000000e+00
          1.021359565972e-01 1.910829422382e-01 0.000000000000e+00
          1.029216178018e-01 1.925528110247e-01 0.000000000000e+00
          1.037072790064e-01 1.940226798111e-01 0.000000000000e+00
          1.044929402110e-01 1.954925485976e-01 0.000000000000e+00
          1.052786014156e-01 1.969624173840e-01 0.000000000000e+00
          1.060642626202e-01 1.984322861705e-01 0.000000000000e+00
          6.696959785006e-02 1.616789193550e-01 0.000000000000e+00
          6.760740354387e-02 1.632187185870e-01 0.000000000000e+00
          6.824520923768e-02 1.647585178189e-01 0.000000000000e+00
          6.888301493149e-02 1.662983170509e-01 0.000000000000e+00
          6.952082062530e-02 1.678381162828e-01 0.000000000000e+00
          7.015862631911e-02 1.693779155148e-01 0.000000000000e+00
          7.079643201292e-02 1.709177147467e-01 0.000000000000e+00
          7.143423770673e-02 1.724575139787e-01 0.000000000000e+00
          7.207204340054e-02 1.739973132106e-01 0.000000000000e+00
          7.270984909435e-02 1.755371124426e-01 0.000000000000e+00
          7.334765478816e-02 1.770769116745e-01 0.000000000000e+00
          7.398546048197e-02 1.786167109065e-01 0.000000000000e+00
          7.462326617578e-02 1.801565101384e-01 0.000000000000e+00
          7.526107186959e-02 1.816963093704e-01 0.000000000000e+00
          7.589887756340e-02 1.832361086023e-01 0.000000000000e+00
          7.653668325721e-02 1.847759078343e-01 0.000000000000e+00
          7.717448895102e-02 1.863157070662e-01 0.000000000000e+00
          7.781229464483e-02 1.878555062982e-01 0.000000000000e+00
          7.845010033864e-02 1.893953055301e-01 0.000000000000e+00
          7.908790603245e-02 1.909351047621e-01 0.000000000000e+00
          7.972571172626e-02 1.924749039941e-01 0.000000000000e+00
          8.036351742007e-02 1.940147032260e-01 0.000000000000e+00
          8.100132311388e-02 1.955545024580e-01 0.000000000000e+00
          8.163912880769e-02 1.970943016899e-01 0.000000000000e+00
          8.227693450150e-02 1.986341009219e-01 0.000000000000e+00
          8.291474019531e-02 2.001739001538e-01 0.000000000000e+00
          8.355254588912e-02 2.017136993858e-01 0.000000000000e+00
          8.419035158293e-02 2.032534986177e-01 0.000000000000e+00
          8.482815727674e-02 2.047932978497e-01 0.000000000000e+00
          8.546596297055e-02 2.063330970816e-01 0.000000000000e+00
          8.610376866436e-02 2.078728963136e-01 0.000000000000e+00
          5.079981536213e-02 1.674645597109e-01 0.000000000000e+00
          5.128362312748e-02 1.690594602796e-01 0.000000000000e+00
          5.176743089284e-02 1.706543608483e-01 0.000000000000e+00
          5.225123865819e-02 1.722492614169e-01 0.000000000000e+00
          5.273504642354e-02 1.738441619856e-01 0.000000000000e+00
          5.321885418890e-02 1.754390625543e-01 0.000000000000e+00
          5.370266195425e-02 1.770339631230e-01 0.000000000000e+00
          5.418646971960e-02 1.786288636917e-01 0.000000000000e+00
          5.467027748496e-02 1.802237642603e-01 0.000000000000e+00
          5.515408525031e-02 1.818186648290e-01 0.000000000000e+00
          5.563789301567e-02 1.834135653977e-01 0.000000000000e+00
          5.612170078102e-02 1.850084659664e-01 0.000000000000e+00
          5.660550854637e-02 1.866033665350e-01 0.000000000000e+00
          5.708931631173e-02 1.881982671037e-01 0.000000000000e+00
          5.757312407708e-02 1.897931676724e-01 0.000000000000e+00
          5.805693184243e-02 1.913880682411e-01 0.000000000000e+00
          5.854073960779e-02 1.929829688097e-01 0.000000000000e+00
          5.902454737314e-02 1.945778693784e-01 0.000000000000e+00
          5.950835513849e-02 1.961727699471e-01 0.000000000000e+00
          5.999216290385e-02 1.977676705158e-01 0.000000000000e+00
          6.047597066920e-02 1.993625710844e-01 0.000000000000e+00
          6.095977843456e-02 2.009574716531e-01 0.000000000000e+00
          6.144358619991e-02 2.025523722218e-01 0.000000000000e+00
          6.192739396526e-02 2.041472727905e-01 0.000000000000e+00
          6.241120173062e-02 2.057421733591e-01 0.000000000000e+00
          6.289500949597e-02 2.073370739278e-01 0.000000000000e+00
          6.337881726132e-02 2.089319744965e-01 0.000000000000e+00
          6.386262502668e-02 2.105268750652e-01 0.000000000000e+00
          6.434643279203e-02 2.121217756338e-01 0.000000000000e+00
          6.483024055738e-02 2.137166762025e-01 0.000000000000e+00
          6.531404832274e-02 2.153115767712e-01 0.000000000000e+00
          3.414080286782e-02 1.716374247638e-01 0.000000000000e+00
          3.446595337132e-02 1.732720669044e-01 0.000000000000e+00
          3.479110387482e-02 1.749067090450e-01 0.000000000000e+00
          3.511625437833e-02 1.765413511856e-01 0.000000000000e+00
          3.544140488183e-02 1.781759933262e-01 0.000000000000e+00
          3.576655538533e-02 1.798106354668e-01 0.000000000000e+00
          3.609170588883e-02 1.814452776074e-01 0.000000000000e+00
          3.641685639234e-02 1.830799197480e-01 0.000000000000e+00
          3.674200689584e-02 1.847145618886e-01 0.000000000000e+00
          3.706715739934e-02 1.863492040292e-01 0.000000000000e+00
          3.739230790285e-02 1.879838461699e-01 0.000000000000e+00
          3.771745840635e-02 1.896184883105e-01 0.000000000000e+00
          3.804260890985e-02 1.912531304511e-01 0.000000000000e+00
          3.836775941336e-02 1.928877725917e-01 0.000000000000e+00
          3.869290991686e-02 1.945224147323e-01 0.000000000000e+00
          3.901806042036e-02 1.961570568729e-01 0.000000000000e+00
          3.934321092386e-02 1.977916990135e-01 0.000000000000e+00
          3.966836142737e-02 1.994263411541e-01 0.000000000000e+00
          3.999351193087e-02 2.010609832947e-01 0.000000000000e+00
          4.031866243437e-02 2.026956254353e-01 0.000000000000e+00
          4.064381293788e-02 2.043302675759e-01 0.000000000000e+00
          4.096896344138e-02 2.059649097165e-01 0.000000000000e+00
          4.129411394488e-02 2.075995518571e-01 0.000000000000e+00
          4.161926444839e-02 2.092341939977e-01 0.000000000000e+00
          4.194441495189e-02 2.108688361384e-01 0.000000000000e+00
          4.226956545539e-02 2.125034782790e-01 0.000000000000e+00
          4.259471595889e-02 2.141381204196e-01 0.000000000000e+00
          4.291986646240e-02 2.157727625602e-01 0.000000000000e+00
          4.324501696590e-02 2.174074047008e-01 0.000000000000e+00
          4.357016746940e-02 2.190420468414e-01 0.000000000000e+00
          4.389531797291e-02 2.206766889820e-01 0.000000000000e+00
          1.715299576892e-02 1.741573275408e-01 0.000000000000e+00
          1.731635763338e-02 1.758159687555e-01 0.000000000000e+00
          1.747971949785e-02 1.774746099701e-01 0.000000000000e+00
          1.764308136232e-02 1.791332511848e-01 0.000000000000e+00
          1.780644322678e-02 1.807918923995e-01 0.000000000000e+00
          1.796980509125e-02 1.824505336142e-01 0.000000000000e+00
          1.813316695571e-02 1.841091748288e-01 0.000000000000e+00
          1.829652882018e-02 1.857678160435e-01 0.000000000000e+00
          1.845989068465e-02 1.874264572582e-01 0.000000000000e+00
          1.862325254911e-02 1.890850984729e-01 0.000000000000e+00
          1.878661441358e-02 1.907437396875e-01 0.000000000000e+00
          1.894997627804e-02 1.924023809022e-01 0.000000000000e+00
          1.911333814251e-02 1.940610221169e-01 0.000000000000e+00
          1.927670000697e-02 1.957196633316e-01 0.000000000000e+00
          1.944006187144e-02 1.973783045462e-01 0.000000000000e+00
          1.960342373591e-02 1.990369457609e-01 0.000000000000e+00
          1.976678560037e-02 2.006955869756e-01 0.000000000000e+00
          1.993014746484e-02 2.023542281903e-01 0.000000000000e+00
          2.009350932930e-02 2.040128694049e-01 0.000000000000e+00
          2.025687119377e-02 2.056715106196e-01 0.000000000000e+00
          2.042023305824e-02 2.073301518343e-01 0.000000000000e+00
          2.058359492270e-02 2.089887930490e-01 0.000000000000e+00
          2.074695678717e-02 2.106474342636e-01 0.000000000000e+00
          2.091031865163e-02 2.123060754783e-01 0.000000000000e+00
          2.107368051610e-02 2.139647166930e-01 0.000000000000e+00
          2.123704238057e-02 2.156233579076e-01 0.000000000000e+00
          2.140040424503e-02 2.172819991223e-01 0.000000000000e+00
          2.156376610950e-02 2.189406403370e-01 0.000000000000e+00
          2.172712797396e-02 2.205992815517e-01 0.000000000000e+00
          2.189048983843e-02 2.222579227663e-01 0.000000000000e+00
          2.205385170289e-02 2.239165639810e-01 0.000000000000e+00
          -4.060893083300e-09 1.750000000000e-01 0.000000000000e+00
          -4.099568255522e-09 1.766666666667e-01 0.000000000000e+00
          -4.138243427744e-09 1.783333333333e-01 0.000000000000e+00
          -4.176918599966e-09 1.800000000000e-01 0.000000000000e+00
          -4.215593772188e-09 1.816666666667e-01 0.000000000000e+00
          -4.254268944410e-09 1.833333333333e-01 0.000000000000e+00
          -4.292944116632e-09 1.850000000000e-01 0.000000000000e+00
          -4.331619288854e-09 1.866666666667e-01 0.000000000000e+00
          -4.370294461076e-09 1.883333333333e-01 0.000000000000e+00
          -4.408969633297e-09 1.900000000000e-01 0.000000000000e+00
          -4.447644805519e-09 1.916666666667e-01 0.000000000000e+00
          -4.486319977741e-09 1.933333333333e-01 0.000000000000e+00
          -4.524995149963e-09 1.950000000000e-01 0.000000000000e+00
          -4.563670322185e-09 1.966666666667e-01 0.000000000000e+00
          -4.602345494407e-09 1.983333333333e-01 0.000000000000e+00
          -4.641020666629e-09 2.000000000000e-01 0.000000000000e+00
          -4.679695838851e-09 2.016666666667e-01 0.000000000000e+00
          -4.718371011073e-09 2.033333333333e-01 0.000000000000e+00
          -4.757046183295e-09 2.050000000000e-01 0.000000000000e+00
          -4.795721355517e-09 2.066666666667e-01 0.000000000000e+00
          -4.834396527738e-09 2.083333333333e-01 0.000000000000e+00
          -4.873071699960e-09 2.100000000000e-01 0.000000000000e+00
          -4.911746872182e-09 2.116666666667e-01 0.000000000000e+00
          -4.950422044404e-09 2.133333333333e-01 0.000000000000e+00
          -4.989097216626e-09 2.150000000000e-01 0.000000000000e+00
          -5.027772388848e-09 2.166666666667e-01 0.000000000000e+00
          -5.066447561070e-09 2.183333333333e-01 0.000000000000e+00
          -5.105122733292e-09 2.200000000000e-01 0.000000000000e+00
          -5.143797905514e-09 2.216666666667e-01 0.000000000000e+00
          -5.182473077736e-09 2.233333333333e-01 0.000000000000e+00
          -5.221148249957e-09 2.250000000000e-01 0.000000000000e+00
        </DataArray>
      </Points>
      <Cells>
        <DataArray type="Int64" Name="connectivity" format="ascii">
          31 0 1 32 
          32 1 2 33 
          33 2 3 34 
          34 3 4 35 
          35 4 5 36 
          36 5 6 37 
          37 6 7 38 
          38 7 8 39 
          39 8 9 40 
          40 9 10 41 
          41 10 11 42 
          42 11 12 43 
          43 12 13 44 
          44 13 14 45 
          45 14 15 46 
          46 15 16 47 
          47 16 17 48 
          48 17 18 49 
          49 18 19 50 
          50 19 20 51 
          51 20 21 52 
          52 21 22 53 
          53 22 23 54 
          54 23 24 55 
          55 24 25 56 
          56 25 26 57 
          57 26 27 58 
          58 27 28 59 
          59 28 29 60 
          60 29 30 61 
          62 31 32 63 
          63 32 33 64 
          64 33 34 65 
          65 34 35 66 
          66 35 36 67 
          67 36 37 68 
          68 37 38 69 
          69 38 39 70 
          70 39 40 71 
          71 40 41 72 
          72 41 42 73 
          73 42 43 74 
          74 43 44 75 
          75 44 45 76 
          76 45 46 77 
          77 46 47 78 
          78 47 48 79 
          79 48 49 80 
          80 49 50 81 
          81 50 51 82 
          82 51 52 83 
          83 52 53 84 
          84 53 54 85 
          85 54 55 86 
          86 55 56 87 
          87 56 57 88 
          88 57 58 89 
          89 58 59 90 
          90 59 60 91 
          91 60 61 92 
          93 62 63 94 
          94 63 64 95 
          95 64 65 96 
          96 65 66 97 
          97 66 67 98 
          98 67 68 99 
          99 68 69 100 
          100 69 70 101 
          101 70 71 102 
          102 71 72 103 
          103 72 73 104 
          104 73 74 105 
          105 74 75 106 
          106 75 76 107 
          107 76 77 108 
          108 77 78 109 
          109 78 79 110 
          110 79 80 111 
          111 80 81 112 
          112 81 82 113 
          113 82 83 114 
          114 83 84 115 
          115 84 85 116 
          116 85 86 117 
          117 86 87 118 
          118 87 88 119 
          119 88 89 120 
          120 89 90 121 
          121 90 91 122 
          122 91 92 123 
          124 93 94 125 
          125 94 95 126 
          126 95 96 127 
          127 96 97 128 
          128 97 98 129 
          129 98 99 130 
          130 99 100 131 
          131 100 101 132 
          132 101 102 133 
          133 102 103 134 
          134 103 104 135 
          135 104 105 136 
          136 105 106 137 
          137 106 107 138 
          138 107 108 139 
          139 108 109 140 
          140 109 110 141 
          141 110 111 142 
          142 111 112 143 
          143 112 113 144 
          144 113 114 145 
          145 114 115 146 
          146 115 116 147 
          147 116 117 148 
          148 117 118 149 
          149 118 119 150 
          150 119 120 151 
          151 120 121 152 
          152 121 122 153 
          153 122 123 154 
          155 124 125 156 
          156 125 126 157 
          157 126 127 158 
          158 127 128 159 
          159 128 129 160 
          160 129 130 161 
          161 130 131 162 
          162 131 132 163 
          163 132 133 164 
          164 133 134 165 
          165 134 135 166 
          166 135 136 167 
          167 136 137 168 
          168 137 138 169 
          169 138 139 170 
          170 139 140 171 
          171 140 141 172 
          172 141 142 173 
          173 142 143 174 
          174 143 144 175 
          175 144 145 176 
          176 145 146 177 
          177 146 147 178 
          178 147 148 179 
          179 148 149 180 
          180 149 150 181 
          181 150 151 182 
          182 151 152 183 
          183 152 153 184 
          184 153 154 185 
          186 155 156 187 
          187 156 157 188 
          188 157 158 189 
          189 158 159 190 
          190 159 160 191 
          191 160 161 192 
          192 161 162 193 
          193 162 163 194 
          194 163 164 195 
          195 164 165 196 
          196 165 166 197 
          197 166 167 198 
          198 167 168 199 
          199 168 169 200 
          200 169 170 201 
          201 170 171 202 
          202 171 172 203 
          203 172 173 204 
          204 173 174 205 
          205 174 175 206 
          206 175 176 207 
          207 176 177 208 
          208 177 178 209 
          209 178 179 210 
          210 179 180 211 
          211 180 181 212 
          212 181 182 213 
          213 182 183 214 
          214 183 184 215 
          215 184 185 216 
          217 186 187 218 
          218 187 188 219 
          219 188 189 220 
          220 189 190 221 
          221 190 191 222 
          222 191 192 223 
          223 192 193 224 
          224 193 194 225 
          225 194 195 226 
          226 195 196 227 
          227 196 197 228 
          228 197 198 229 
          229 198 199 230 
          230 199 200 231 
          231 200 201 232 
          232 201 202 233 
          233 202 203 234 
          234 203 204 235 
          235 204 205 236 
          236 205 206 237 
          237 206 207 238 
          238 207 208 239 
          239 208 209 240 
          240 209 210 241 
          241 210 211 242 
          242 211 212 243 
          243 212 213 244 
          244 213 214 245 
          245 214 215 246 
          246 215 216 247 
          248 217 218 249 
          249 218 219 250 
          250 219 220 251 
          251 220 221 252 
          252 221 222 253 
          253 222 223 254 
          254 223 224 255 
          255 224 225 256 
          256 225 226 257 
          257 226 227 258 
          258 227 228 259 
          259 228 229 260 
          260 229 230 261 
          261 230 231 262 
          262 231 232 263 
          263 232 233 264 
          264 233 234 265 
          265 234 235 266 
          266 235 236 267 
          267 236 237 268 
          268 237 238 269 
          269 238 239 270 
          270 239 240 271 
          271 240 241 272 
          272 241 242 273 
          273 242 243 274 
          274 243 244 275 
          275 244 245 276 
          276 245 246 277 
          277 246 247 278 
          279 248 249 280 
          280 249 250 281 
          281 250 251 282 
          282 251 252 283 
          283 252 253 284 
          284 253 254 285 
          285 254 255 286 
          286 255 256 287 
          287 256 257 288 
          288 257 258 289 
          289 258 259 290 
          290 259 260 291 
          291 260 261 292 
          292 261 262 293 
          293 262 263 294 
          294 263 264 295 
          295 264 265 296 
          296 265 266 297 
          297 266 267 298 
          298 267 268 299 
          299 268 269 300 
          300 269 270 301 
          301 270 271 302 
          302 271 272 303 
          303 272 273 304 
          304 273 274 305 
          305 274 275 306 
          306 275 276 307 
          307 276 277 308 
          308 277 278 309 
          310 279 280 311 
          311 280 281 312 
          312 281 282 313 
          313 282 283 314 
          314 283 284 315 
          315 284 285 316 
          316 285 286 317 
          317 286 287 318 
          318 287 288 319 
          319 288 289 320 
          320 289 290 321 
          321 290 291 322 
          322 291 292 323 
          323 292 293 324 
          324 293 294 325 
          325 294 295 326 
          326 295 296 327 
          327 296 297 328 
          328 297 298 329 
          329 298 299 330 
          330 299 300 331 
          331 300 301 332 
          332 301 302 333 
          333 302 303 334 
          334 303 304 335 
          335 304 305 336 
          336 305 306 337 
          337 306 307 338 
          338 307 308 339 
          339 308 309 340 
          341 310 311 342 
          342 311 312 343 
          343 312 313 344 
          344 313 314 345 
          345 314 315 346 
          346 315 316 347 
          347 316 317 348 
          348 317 318 349 
          349 318 319 350 
          350 319 320 351 
          351 320 321 352 
          352 321 322 353 
          353 322 323 354 
          354 323 324 355 
          355 324 325 356 
          356 325 326 357 
          357 326 327 358 
          358 327 328 359 
          359 328 329 360 
          360 329 330 361 
          361 330 331 362 
          362 331 332 363 
          363 332 333 364 
          364 333 334 365 
          365 334 335 366 
          366 335 336 367 
          367 336 337 368 
          368 337 338 369 
          369 338 339 370 
          370 339 340 371 
          372 341 342 373 
          373 342 343 374 
          374 343 344 375 
          375 344 345 376 
          376 345 346 377 
          377 346 347 378 
          378 347 348 379 
          379 348 349 380 
          380 349 350 381 
          381 350 351 382 
          382 351 352 383 
          383 352 353 384 
          384 353 354 385 
          385 354 355 386 
          386 355 356 387 
          387 356 357 388 
          388 357 358 389 
          389 358 359 390 
          390 359 360 391 
          391 360 361 392 
          392 361 362 393 
          393 362 363 394 
          394 363 364 395 
          395 364 365 396 
          396 365 366 397 
          397 366 367 398 
          398 367 368 399 
          399 368 369 400 
          400 369 370 401 
          401 370 371 402 
          403 372 373 404 
          404 373 374 405 
          405 374 375 406 
          406 375 376 407 
          407 376 377 408 
          408 377 378 409 
          409 378 379 410 
          410 379 380 411 
          411 380 381 412 
          412 381 382 413 
          413 382 383 414 
          414 383 384 415 
          415 384 385 416 
          416 385 386 417 
          417 386 387 418 
          418 387 388 419 
          419 388 389 420 
          420 389 390 421 
          421 390 391 422 
          422 391 392 423 
          423 392 393 424 
          424 393 394 425 
          425 394 395 426 
          426 395 396 427 
          427 396 397 428 
          428 397 398 429 
          429 398 399 430 
          430 399 400 431 
          431 400 401 432 
          432 401 402 433 
          434 403 404 435 
          435 404 405 436 
          436 405 406 437 
          437 406 407 438 
          438 407 408 439 
          439 408 409 440 
          440 409 410 441 
          441 410 411 442 
          442 411 412 443 
          443 412 413 444 
          444 413 414 445 
          445 414 415 446 
          446 415 416 447 
          447 416 417 448 
          448 417 418 449 
          449 418 419 450 
          450 419 420 451 
          451 420 421 452 
          452 421 422 453 
          453 422 423 454 
          454 423 424 455 
          455 424 425 456 
          456 425 426 457 
          457 426 427 458 
          458 427 428 459 
          459 428 429 460 
          460 429 430 461 
          461 430 431 462 
          462 431 432 463 
          463 432 433 464 
          465 434 435 466 
          466 435 436 467 
          467 436 437 468 
          468 437 438 469 
          469 438 439 470 
          470 439 440 471 
          471 440 441 472 
          472 441 442 473 
          473 442 443 474 
          474 443 444 475 
          475 444 445 476 
          476 445 446 477 
          477 446 447 478 
          478 447 448 479 
          479 448 449 480 
          480 449 450 481 
          481 450 451 482 
          482 451 452 483 
          483 452 453 484 
          484 453 454 485 
          485 454 455 486 
          486 455 456 487 
          487 456 457 488 
          488 457 458 489 
          489 458 459 490 
          490 459 460 491 
          491 460 461 492 
          492 461 462 493 
          493 462 463 494 
          494 463 464 495 
          496 465 466 497 
          497 466 467 498 
          498 467 468 499 
          499 468 469 500 
          500 469 470 501 
          501 470 471 502 
          502 471 472 503 
          503 472 473 504 
          504 473 474 505 
          505 474 475 506 
          506 475 476 507 
          507 476 477 508 
          508 477 478 509 
          509 478 479 510 
          510 479 480 511 
          511 480 481 512 
          512 481 482 513 
          513 482 483 514 
          514 483 484 515 
          515 484 485 516 
          516 485 486 517 
          517 486 487 518 
          518 487 488 519 
          519 488 489 520 
          520 489 490 521 
          521 490 491 522 
          522 491 492 523 
          523 492 493 524 
          524 493 494 525 
          525 494 495 526 
        </DataArray>
        <DataArray type="Int64" Name="offsets" format="ascii">
          4 8 12 16 20 24 28 32 36 40 44 48 52 56 60 64 68 72 76 80 84 88 92 96 100 104 108 112 116 120 124 128 132 136 140 144 148 152 156 160 164 168 172 176 180 184 188 192 196 200 204 208 212 216 220 224 228 232 236 240 244 248 252 256 260 264 268 272 276 280 284 288 292 296 300 304 308 312 316 320 324 328 332 336 340 344 348 352 356 360 364 368 372 376 380 384 388 392 396 400 404 408 412 416 420 424 428 432 436 440 444 448 452 456 460 464 468 472 476 480 484 488 492 496 500 504 508 512 516 520 524 528 532 536 540 544 548 552 556 560 564 568 572 576 580 584 588 592 596 600 604 608 612 616 620 624 628 632 636 640 644 648 652 656 660 664 668 672 676 680 684 688 692 696 700 704 708 712 716 720 724 728 732 736 740 744 748 752 756 760 764 768 772 776 780 784 788 792 796 800 804 808 812 816 820 824 828 832 836 840 844 848 852 856 860 864 868 872 876 880 884 888 892 896 900 904 908 912 916 920 924 928 932 936 940 944 948 952 956 960 964 968 972 976 980 984 988 992 996 1000 1004 1008 1012 1016 1020 1024 1028 1032 1036 1040 1044 1048 1052 1056 1060 1064 1068 1072 1076 1080 1084 1088 1092 1096 1100 1104 1108 1112 1116 1120 1124 1128 1132 1136 1140 1144 1148 1152 1156 1160 1164 1168 1172 1176 1180 1184 1188 1192 1196 1200 1204 1208 1212 1216 1220 1224 1228 1232 1236 1240 1244 1248 1252 1256 1260 1264 1268 1272 1276 1280 1284 1288 1292 1296 1300 1304 1308 1312 1316 1320 1324 1328 1332 1336 1340 1344 1348 1352 1356 1360 1364 1368 1372 1376 1380 1384 1388 1392 1396 1400 1404 1408 1412 1416 1420 1424 1428 1432 1436 1440 1444 1448 1452 1456 1460 1464 1468 1472 1476 1480 1484 1488 1492 1496 1500 1504 1508 1512 1516 1520 1524 1528 1532 1536 1540 1544 1548 1552 1556 1560 1564 1568 1572 1576 1580 1584 1588 1592 1596 1600 1604 1608 1612 1616 1620 1624 1628 1632 1636 1640 1644 1648 1652 1656 1660 1664 1668 1672 1676 1680 1684 1688 1692 1696 1700 1704 1708 1712 1716 1720 1724 1728 1732 1736 1740 1744 1748 1752 1756 1760 1764 1768 1772 1776 1780 1784 1788 1792 1796 1800 1804 1808 1812 1816 1820 1824 1828 1832 1836 1840 1844 1848 1852 1856 1860 1864 1868 1872 1876 1880 1884 1888 1892 1896 1900 1904 1908 1912 1916 1920 
        </DataArray>
        <DataArray type="UInt8" Name="types" format="ascii">
          9 9 9 9 9 9 9 9 9 9 9 9 9 9 9 9 9 9 9 9 9 9 9 9 9 9 9 9 9 9 9 9 9 9 9 9 9 9 9 9 9 9 9 9 9 9 9 9 9 9 9 9 9 9 9 9 9 9 9 9 9 9 9 9 9 9 9 9 9 9 9 9 9 9 9 9 9 9 9 9 9 9 9 9 9 9 9 9 9 9 9 9 9 9 9 9 9 9 9 9 9 9 9 9 9 9 9 9 9 9 9 9 9 9 9 9 9 9 9 9 9 9 9 9 9 9 9 9 9 9 9 9 9 9 9 9 9 9 9 9 9 9 9 9 9 9 9 9 9 9 9 9 9 9 9 9 9 9 9 9 9 9 9 9 9 9 9 9 9 9 9 9 9 9 9 9 9 9 9 9 9 9 9 9 9 9 9 9 9 9 9 9 9 9 9 9 9 9 9 9 9 9 9 9 9 9 9 9 9 9 9 9 9 9 9 9 9 9 9 9 9 9 9 9 9 9 9 9 9 9 9 9 9 9 9 9 9 9 9 9 9 9 9 9 9 9 9 9 9 9 9 9 9 9 9 9 9 9 9 9 9 9 9 9 9 9 9 9 9 9 9 9 9 9 9 9 9 9 9 9 9 9 9 9 9 9 9 9 9 9 9 9 9 9 9 9 9 9 9 9 9 9 9 9 9 9 9 9 9 9 9 9 9 9 9 9 9 9 9 9 9 9 9 9 9 9 9 9 9 9 9 9 9 9 9 9 9 9 9 9 9 9 9 9 9 9 9 9 9 9 9 9 9 9 9 9 9 9 9 9 9 9 9 9 9 9 9 9 9 9 9 9 9 9 9 9 9 9 9 9 9 9 9 9 9 9 9 9 9 9 9 9 9 9 9 9 9 9 9 9 9 9 9 9 9 9 9 9 9 9 9 9 9 9 9 9 9 9 9 9 9 9 9 9 9 9 9 9 9 9 9 9 9 9 9 9 9 9 9 9 9 9 9 9 9 9 9 9 9 9 9 9 9 9 9 9 9 9 9 9 9 9 9 9 9 9 9 9 9 9 9 9 9 9 9 9 9 9 9 9 
        </DataArray>
      </Cells>
      <PointData Scalars="DISPLACEMENT_X1">
        <DataArray type="Float64" Name="STRESS_1" format="ascii">
          -1.039995439059e+03 -6.415501851460e+03 -1.156808454664e+04 -1.651890389450e+04 -2.128131198453e+04 -2.586643740152e+04 -3.028394389916e+04 -3.454242671110e+04 -3.864966024680e+04 -4.261276477922e+04 -4.643832242641e+04 -5.013246121860e+04 -5.370091579492e+04 -5.714907392212e+04 -6.048201080745e+04 -6.370451724431e+04 -6.682112008209e+04 -6.983610014494e+04 -7.275350495441e+04 -7.557715898820e+04 -7.831067082357e+04 -8.095743688114e+04 -8.352064233270e+04 -8.600325781171e+04 -8.840803274665e+04 -9.073748359178e+04 -9.299388049597e+04 -9.517923807368e+04 -9.729534014373e+04 -9.934389427987e+04 -1.013278516331e+05 -1.040335681572e+03 -6.415648252944e+03 -1.156816083869e+04 -1.651894765408e+04 -2.128133831989e+04 -2.586645393653e+04 -3.028395448617e+04 -3.454243355615e+04 -3.864966485498e+04 -4.261276786745e+04 -4.643832462966e+04 -5.013246270951e+04 -5.370091684525e+04 -5.714907460539e+04 -6.048201127342e+04 -6.370451734108e+04 -6.682111983556e+04 -6.983609956892e+04 -7.275350386233e+04 -7.557715736002e+04 -7.831066837100e+04 -8.095743358093e+04 -8.352063791747e+04 -8.600325221052e+04 -8.840802584817e+04 -9.073747561461e+04 -9.299387202587e+04 -9.517923041860e+04 -9.729533578227e+04 -9.934389556383e+04 -1.013278558049e+05 -1.040734972378e+03 -6.415797974735e+03 -1.156823398193e+04 -1.651898910960e+04 -2.128136284946e+04 -2.586646807170e+04 -3.028396192822e+04 -3.454243657450e+04 -3.864966507910e+04 -4.261276636878e+04 -4.643832190970e+04 -5.013245928264e+04 -5.370091294346e+04 -5.714907041244e+04 -6.048200665774e+04 -6.370451239396e+04 -6.682111445991e+04 -6.983609355369e+04 -7.275349696874e+04 -7.557714924367e+04 -7.831065884903e+04 -8.095742199595e+04 -8.352062366606e+04 -8.600323445533e+04 -8.840800356394e+04 -9.073744731486e+04 -9.299383574785e+04 -9.517918317213e+04 -9.729527231156e+04 -9.934380479363e+04 -1.013277143806e+05 -1.041436807934e+03 -6.416061074977e+03 -1.156836231398e+04 -1.651906198912e+04 -2.128140582412e+04 -2.586649273414e+04 -3.028397465504e+04 -3.454244165714e+04 -3.864966505929e+04 -4.261276312984e+04 -4.643831655971e+04 -5.013245258267e+04 -5.370090535583e+04 -5.714906207183e+04 -6.048199776191e+04 -6.370450272173e+04 -6.682110401389e+04 -6.983608191459e+04 -7.275348384592e+04 -7.557713407865e+04 -7.831064104687e+04 -8.095740066532e+04 -8.352059770392e+04 -8.600320247563e+04 -8.840796361588e+04 -9.073739697867e+04 -9.299377146511e+04 -9.517909981822e+04 -9.729516055318e+04 -9.934364510453e+04 -1.013274657265e+05 -1.042502502719e+03 -6.416460129189e+03 -1.156855671298e+04 -1.651917186663e+04 -2.128147039437e+04 -2.586652912909e+04 -3.028399293420e+04 -3.454244801194e+04 -3.864966362832e+04 -4.261275648107e+04 -4.643830664729e+04 -5.013244046762e+04 -5.370089171773e+04 -5.714904725856e+04 -6.048198196723e+04 -6.370448578065e+04 -6.682108573757e+04 -6.983606185992e+04 -7.275346162090e+04 -7.557710882599e+04 -7.831061176755e+04 -8.095736612269e+04 -8.352055636075e+04 -8.600315210496e+04 -8.840790135016e+04 -9.073731913766e+04 -9.299367279196e+04 -9.517897235009e+04 -9.729499039522e+04 -9.934340233747e+04 -1.013270882202e+05 -1.044033945276e+03 -6.417032496546e+03 -1.156883436038e+04 -1.651932791621e+04 -2.128156084100e+04 -2.586657897293e+04 -3.028401636285e+04 -3.454245403320e+04 -3.864965805544e+04 -4.261274327795e+04 -4.643828845162e+04 -5.013241900438e+04 -5.370086789735e+04 -5.714902165689e+04 -6.048195473306e+04 -6.370445714185e+04 -6.682105501781e+04 -6.983602881518e+04 -7.275342534987e+04 -7.557706845775e+04 -7.831056581866e+04 -8.095731292781e+04 -8.352049352380e+04 -8.600307660124e+04 -8.840780926836e+04 -9.073720503746e+04 -9.299352918367e+04 -9.517878782883e+04 -9.729474510471e+04 -9.934305305422e+04 -1.013265458807e+05 -1.046196287478e+03 -6.417838048665e+03 -1.156922271895e+04 -1.651954383409e+04 -2.128168355737e+04 -2.586664410098e+04 -3.028404364178e+04 -3.454245615579e+04 -3.864964352345e+04 -4.261271783442e+04 -4.643825573899e+04 -5.013238127682e+04 -5.370082691596e+04 -5.714897819565e+04 -6.048190917049e+04 -6.370440927383e+04 -6.682100477235e+04 -6.983597536558e+04 -7.275336767387e+04 -7.557700527507e+04 -7.831049522698e+04 -8.095723248429e+04 -8.352039996215e+04 -8.600296574516e+04 -8.840767556857e+04 -9.073704088695e+04 -9.299332406098e+04 -9.517852578175e+04 -9.729439772727e+04 -9.934255926976e+04 -1.013257802953e+05 -1.049260870446e+03 -6.418974155658e+03 -1.156976562927e+04 -1.651984177924e+04 -2.128184876313e+04 -2.586672671434e+04 -3.028407216204e+04 -3.454244876333e+04 -3.864961221453e+04 -4.261267057735e+04 -4.643819809288e+04 -5.013231675666e+04 -5.370075775539e+04 -5.714890558972e+04 -6.048183386374e+04 -6.370433126004e+04 -6.682092359831e+04 -6.983589017479e+04 -7.275327716065e+04 -7.557690746207e+04 -7.831038757938e+04 -8.095711159827e+04 -8.352026132389e+04 -8.600280345912e+04 -8.840748169001e+04 -9.073680481347e+04 -9.299303098342e+04 -9.517815290112e+04 -9.729390489864e+04 -9.934185892178e+04 -1.013246957045e+05 -1.053689961743e+03 -6.420605349533e+03 -1.157053723144e+04 -1.652025859589e+04 -2.128207347019e+04 -2.586683157723e+04 -3.028409842159e+04 -3.454242281634e+04 -3.864955148455e+04 -4.261258684103e+04 -4.643809923036e+04 -5.013220818727e+04 -5.370064274316e+04 -5.714878607968e+04 -6.048171091645e+04 -6.370420496548e+04 -6.682079354148e+04 -6.983575505919e+04 -7.275313517876e+04 -7.557675587229e+04 -7.831022282256e+04 -8.095692873729e+04 -8.352005403510e+04 -8.600256310834e+04 -8.840719704000e+04 -9.073646057622e+04 -9.299260575886e+04 -9.517761378011e+04 -9.729319349238e+04 -9.934084710664e+04 -1.013231292696e+05 -1.060316683905e+03 -6.423023646688e+03 -1.157166753836e+04 -1.652086036102e+04 -2.128238849994e+04 -2.586696813000e+04 -3.028411755433e+04 -3.454236395024e+04 -3.864944064914e+04 -4.261244186485e+04 -4.643793193064e+04 -5.013202656042e+04 -5.370045186156e+04 -5.714858914453e+04 -6.048150947906e+04 -6.370399940894e+04 -6.682058318783e+04 -6.983553819567e+04 -7.275290924823e+04 -7.557651686758e+04 -7.830996557063e+04 -8.095664589870e+04 -8.351973632726e+04 -8.600219787823e+04 -8.840676749376e+04 -9.073594403394e+04 -9.299197041621e+04 -9.517681065742e+04 -9.729213418289e+04 -9.933933657735e+04 -1.013207882190e+05 -1.070766435302e+03 -6.426784397117e+03 -1.157339763048e+04 -1.652176917695e+04 -2.128285289253e+04 -2.586715395168e+04 -3.028411999959e+04 -3.454224468097e+04 -3.864924047633e+04 -4.261218886117e+04 -4.643764419350e+04 -5.013171678862e+04 -5.370012802597e+04 -5.714825637122e+04 -6.048117025065e+04 -6.370365460109e+04 -6.682023196033e+04 -6.983517813557e+04 -7.275253643180e+04 -7.557612542228e+04 -7.830954748667e+04 -8.095619015887e+04 -8.351922833059e+04 -8.600161790772e+04 -8.840608953450e+04 -9.073513302794e+04 -9.299097743289e+04 -9.517555932217e+04 -9.729048224083e+04 -9.933696673744e+04 -1.013171041627e+05 -1.088569775517e+03 -6.433061450061e+03 -1.157619816533e+04 -1.652321394541e+04 -2.128357806572e+04 -2.586742249891e+04 -3.028408312393e+04 -3.454200298983e+04 -3.864886354489e+04 -4.261172363228e+04 -4.643712255632e+04 -5.013115956513e+04 -5.369954838156e+04 -5.714766263446e+04 -6.048056686899e+04 -6.370304304647e+04 -6.681961115824e+04 -6.983454465582e+04 -7.275188410736e+04 -7.557544481979e+04 -7.830882505514e+04 -8.095540763050e+04 -8.351836071705e+04 -8.600063316403e+04 -8.840494576894e+04 -9.073377551769e+04 -9.298932738742e+04 -9.517348563768e+04 -9.728772829184e+04 -9.933296776954e+04 -1.013108506709e+05 -1.122540015405e+03 -6.444834457572e+03 -1.158110216275e+04 -1.652556914188e+04 -2.128470972523e+04 -2.586780915114e+04 -3.028395552638e+04 -3.454151104280e+04 -3.864811914404e+04 -4.261081137129e+04 -4.643610396731e+04 -5.013007710568e+04 -5.369842978852e+04 -5.714652469080e+04 -6.047941769630e+04 -6.370188508056e+04 -6.681844072371e+04 -6.983335368013e+04 -7.275065831121e+04 -7.557416484146e+04 -7.830746454114e+04 -8.095393369321e+04 -8.351673365370e+04 -8.599880461127e+04 -8.840285500936e+04 -9.073133267065e+04 -9.298637931076e+04 -9.516974316978e+04 -9.728263382484e+04 -9.932542899991e+04 -1.012989894015e+05 -1.198136124310e+03 -6.472451771916e+03 -1.159192726922e+04 -1.652953261717e+04 -2.128575767654e+04 -2.586756623348e+04 -3.028306567923e+04 -3.454022111086e+04 -3.864653461750e+04 -4.260899582403e+04 -4.643411115561e+04 -5.012795540027e+04 -5.369621960332e+04 -5.714425448699e+04 -6.047710283963e+04 -6.369952798248e+04 -6.681603242085e+04 -6.983087640613e+04 -7.274808952296e+04 -7.557147948770e+04 -7.830463784443e+04 -8.095093852432e+04 -8.351353166723e+04 -8.599532317623e+04 -8.839894221755e+04 -9.072668700785e+04 -9.298045409205e+04 -9.516164839865e+04 -9.727106134854e+04 -9.930845076207e+04 -1.012727506848e+05 -1.386509703156e+03 -6.564690189873e+03 -1.164164774208e+04 -1.655238460136e+04 -2.129210515825e+04 -2.586485085084e+04 -3.027615627991e+04 -3.453195001518e+04 -3.863832998922e+04 -4.260142181363e+04 -4.642725917660e+04 -5.012169713295e+04 -5.369035918793e+04 -5.713861033002e+04 -6.047154726215e+04 -6.369399630340e+04 -6.681051760450e+04 -6.982540752799e+04 -7.274270049883e+04 -7.556616496643e+04 -7.829929299439e+04 -8.094528540386e+04 -8.350702862834e+04 -8.598707595825e+04 -8.838763604962e+04 -9.071060632995e+04 -9.295767756216e+04 -9.513053149096e+04 -9.723092244963e+04 -9.925937828805e+04 -1.012069491095e+05 -1.371364555419e+03 -6.847694767551e+03 -1.201149223695e+04 -1.691317309767e+04 -2.160295559671e+04 -2.611324323473e+04 -3.046327410786e+04 -3.466480919143e+04 -3.872572810742e+04 -4.265196660506e+04 -4.644850196681e+04 -5.011982935998e+04 -5.367018639284e+04 -5.710364499155e+04 -6.042414662389e+04 -6.363550308139e+04 -6.674139009428e+04 -6.974533997273e+04 -7.265073588358e+04 -7.546081734367e+04 -7.817869883946e+04 -8.080741644641e+04 -8.335000778389e+04 -8.580965621063e+04 -8.818993035489e+04 -9.049516658589e+04 -9.273102261374e+04 -9.490509770380e+04 -9.702687043307e+04 -9.910340208684e+04 -1.011107183734e+05 -5.769083615638e+03 -4.323298967875e+03 -8.652970353753e+03 -1.396725206190e+04 -1.932494239812e+04 -2.447176805700e+04 -2.935569009053e+04 -3.398389435622e+04 -3.837884465387e+04 -4.256464228154e+04 -4.656309005868e+04 -5.039292263157e+04 -5.407003842034e+04 -5.760800593196e+04 -6.101856591244e+04 -6.431208818965e+04 -6.749794704534e+04 -7.058482429719e+04 -7.358095263814e+04 -7.649430387729e+04 -7.933269505520e+04 -8.210378181434e+04 -8.481484197447e+04 -8.747210221144e+04 -9.007910494923e+04 -9.263281334000e+04 -9.511437501180e+04 -9.746661254883e+04 -9.953744049676e+04 -1.009327439129e+05 -1.003495712096e+05 
        </DataArray>
        <DataArray type="Float64" Name="STRESS_2" format="ascii">
          -2.853296004258e+05 -2.827005128138e+05 -2.801602005645e+05 -2.777068561295e+05 -2.753382445617e+05 -2.730518803865e+05 -2.708450299015e+05 -2.687148195483e+05 -2.666583285643e+05 -2.646726525911e+05 -2.627549440899e+05 -2.609024373692e+05 -2.591124623162e+05 -2.573824516788e+05 -2.557099428956e+05 -2.540925776275e+05 -2.525280981221e+05 -2.510143432177e+05 -2.495492423367e+05 -2.481308090202e+05 -2.467571335750e+05 -2.454263745655e+05 -2.441367494821e+05 -2.428865236684e+05 -2.416739976716e+05 -2.404974911012e+05 -2.393553216617e+05 -2.382457717239e+05 -2.371670233350e+05 -2.361169982988e+05 -2.350929958306e+05 -2.853297603148e+05 -2.827005410151e+05 -2.801601977448e+05 -2.777068424573e+05 -2.753382252715e+05 -2.730518574487e+05 -2.708450041340e+05 -2.687147914439e+05 -2.666582985603e+05 -2.646726208859e+05 -2.627549109298e+05 -2.609024028031e+05 -2.591124264856e+05 -2.573824146387e+05 -2.557099047476e+05 -2.540925383188e+05 -2.525280577105e+05 -2.510143017517e+05 -2.495491997561e+05 -2.481307653670e+05 -2.467570887360e+05 -2.454263285583e+05 -2.441367021814e+05 -2.428864750010e+05 -2.416739474263e+05 -2.404974390095e+05 -2.393552671352e+05 -2.382457133450e+05 -2.371669572036e+05 -2.361169120916e+05 -2.350928479096e+05 -2.853302556992e+05 -2.827006308041e+05 -2.801601921643e+05 -2.777068034377e+05 -2.753381692157e+05 -2.730517900290e+05 -2.708449280918e+05 -2.687147084005e+05 -2.666582096711e+05 -2.646725269568e+05 -2.627548124413e+05 -2.609023002116e+05 -2.591123200715e+05 -2.573823046514e+05 -2.557097912584e+05 -2.540924215006e+05 -2.525279376309e+05 -2.510141784091e+05 -2.495490731280e+05 -2.481306353684e+05 -2.467569553686e+05 -2.454261915682e+05 -2.441365613319e+05 -2.428863299182e+05 -2.416737976010e+05 -2.404972835131e+05 -2.393551041968e+05 -2.382455386585e+05 -2.371667585311e+05 -2.361166517250e+05 -2.350923975325e+05 -2.853311343174e+05 -2.827007973278e+05 -2.801601915649e+05 -2.777067446797e+05 -2.753380808895e+05 -2.730516821714e+05 -2.708448054566e+05 -2.687145739965e+05 -2.666580653562e+05 -2.646723741465e+05 -2.627546520843e+05 -2.609021330340e+05 -2.591121465856e+05 -2.573821251821e+05 -2.557096061488e+05 -2.540922308368e+05 -2.525277416078e+05 -2.510139769839e+05 -2.495488663202e+05 -2.481304230339e+05 -2.467567373434e+05 -2.454259675340e+05 -2.441363308383e+05 -2.428860923347e+05 -2.416735519280e+05 -2.404970282134e+05 -2.393548360922e+05 -2.382452502422e+05 -2.371664282633e+05 -2.361162133537e+05 -2.350916255828e+05 -2.853324831619e+05 -2.827010667181e+05 -2.801602087142e+05 -2.777066746238e+05 -2.753379672021e+05 -2.730515398384e+05 -2.708446418688e+05 -2.687143935182e+05 -2.666578709519e+05 -2.646721677961e+05 -2.627544353297e+05 -2.609019068889e+05 -2.591119118165e+05 -2.573818823261e+05 -2.557093556147e+05 -2.540919728269e+05 -2.525274762931e+05 -2.510137043641e+05 -2.495485864096e+05 -2.481301355928e+05 -2.467564420376e+05 -2.454256638923e+05 -2.441360182227e+05 -2.428857697120e+05 -2.416732177805e+05 -2.404966801596e+05 -2.393544693738e+05 -2.382448533648e+05 -2.371659686835e+05 -2.361155904223e+05 -2.350904970627e+05 -2.853344421786e+05 -2.827014784418e+05 -2.801602609332e+05 -2.777066041940e+05 -2.753378363523e+05 -2.730513702078e+05 -2.708444438691e+05 -2.687141734165e+05 -2.666576328643e+05 -2.646719146453e+05 -2.627541691987e+05 -2.609016292628e+05 -2.591116236903e+05 -2.573815844473e+05 -2.557090484541e+05 -2.540916568659e+05 -2.525271514850e+05 -2.510133708647e+05 -2.495482440093e+05 -2.481297840846e+05 -2.467560808586e+05 -2.454252923751e+05 -2.441356352929e+05 -2.428853739292e+05 -2.416728070304e+05 -2.404962508913e+05 -2.393540147540e+05 -2.382443569008e+05 -2.371653837611e+05 -2.361147725332e+05 -2.350889545690e+05 -2.853372315414e+05 -2.827020904880e+05 -2.801603710556e+05 -2.777065457880e+05 -2.753376969177e+05 -2.730511801901e+05 -2.708442176428e+05 -2.687139196761e+05 -2.666573574246e+05 -2.646716215572e+05 -2.627538612347e+05 -2.609013082976e+05 -2.591112912574e+05 -2.573812414742e+05 -2.557086955964e+05 -2.540912944037e+05 -2.525267797310e+05 -2.510129897140e+05 -2.495478532085e+05 -2.481293832181e+05 -2.467556691696e+05 -2.454248688132e+05 -2.441351983316e+05 -2.428849214935e+05 -2.416723360887e+05 -2.404957564300e+05 -2.393534871102e+05 -2.382437729106e+05 -2.371646776556e+05 -2.361137407866e+05 -2.350869032821e+05 -2.853412051166e+05 -2.827029911778e+05 -2.801605700028e+05 -2.777065137024e+05 -2.753375568248e+05 -2.730509746045e+05 -2.708439668802e+05 -2.687136358589e+05 -2.666570485187e+05 -2.646712929664e+05 -2.627535168585e+05 -2.609009507801e+05 -2.591109224394e+05 -2.573808625324e+05 -2.557083074055e+05 -2.540908973811e+05 -2.525263740052e+05 -2.510125751590e+05 -2.495474294295e+05 -2.481289494497e+05 -2.467552243269e+05 -2.454244113344e+05 -2.441347260509e+05 -2.428844314127e+05 -2.416718237905e+05 -2.404952148503e+05 -2.393529026406e+05 -2.382431127827e+05 -2.371638492021e+05 -2.361124561781e+05 -2.350841798346e+05 -2.853469567753e+05 -2.827043237115e+05 -2.801609038486e+05 -2.777065248919e+05 -2.753374217657e+05 -2.730507538730e+05 -2.708436893571e+05 -2.687133187052e+05 -2.666567029169e+05 -2.646709265465e+05 -2.627531348471e+05 -2.609005569001e+05 -2.591105190969e+05 -2.573804513120e+05 -2.557078893433e+05 -2.540904729338e+05 -2.525259433089e+05 -2.510121378355e+05 -2.495469848055e+05 -2.481284963422e+05 -2.467547611082e+05 -2.454239356226e+05 -2.441342347163e+05 -2.428839199665e+05 -2.416712859112e+05 -2.404946403240e+05 -2.393522718590e+05 -2.382423787359e+05 -2.371628788791e+05 -2.361108353712e+05 -2.350804893300e+05 -2.853555410644e+05 -2.827063349145e+05 -2.801614462148e+05 -2.777066008945e+05 -2.753372917733e+05 -2.730505076517e+05 -2.708433691139e+05 -2.687129495537e+05 -2.666563011265e+05 -2.646705032789e+05 -2.627526975898e+05 -2.609001108298e+05 -2.591100675799e+05 -2.573799965951e+05 -2.557074326921e+05 -2.540900148984e+05 -2.525254838277e+05 -2.510116762639e+05 -2.495465200199e+05 -2.481280264269e+05 -2.467542835278e+05 -2.454234466752e+05 -2.441337296559e+05 -2.428833921117e+05 -2.416707257271e+05 -2.404940325806e+05 -2.393515873920e+05 -2.382415480153e+05 -2.371617049974e+05 -2.361087030852e+05 -2.350752762449e+05 -2.853689715531e+05 -2.827094780041e+05 -2.801623225138e+05 -2.777067672092e+05 -2.753371507120e+05 -2.730501981013e+05 -2.708429568360e+05 -2.687124732679e+05 -2.666557857485e+05 -2.646699659328e+05 -2.627521494624e+05 -2.608995598108e+05 -2.591095186806e+05 -2.573794530931e+05 -2.557068962589e+05 -2.540894862250e+05 -2.525249626202e+05 -2.510111613409e+05 -2.495460093436e+05 -2.481275168862e+05 -2.467537709322e+05 -2.454229252858e+05 -2.441331918449e+05 -2.428828273403e+05 -2.416701189620e+05 -2.404933597236e+05 -2.393508028288e+05 -2.382405443720e+05 -2.371601781787e+05 -2.361056937027e+05 -2.350674383287e+05 -2.853914934677e+05 -2.827146567927e+05 -2.801637581680e+05 -2.777070483251e+05 -2.753369348265e+05 -2.730497143767e+05 -2.708423167764e+05 -2.687117421574e+05 -2.666550053731e+05 -2.646691636832e+05 -2.627513439470e+05 -2.608987634062e+05 -2.591087393545e+05 -2.573786958872e+05 -2.557061637929e+05 -2.540887792627e+05 -2.525242803484e+05 -2.510105015614e+05 -2.495453684195e+05 -2.481268895710e+05 -2.467531500084e+05 -2.454223012187e+05 -2.441325513655e+05 -2.428821522939e+05 -2.416693827171e+05 -2.404925209784e+05 -2.393497861697e+05 -2.382391764483e+05 -2.371579612189e+05 -2.361010163876e+05 -2.350546025635e+05 -2.854334287088e+05 -2.827239427441e+05 -2.801661752284e+05 -2.777074379076e+05 -2.753364535398e+05 -2.730487538295e+05 -2.708410785179e+05 -2.687103526264e+05 -2.666535467896e+05 -2.646676892005e+05 -2.627498875716e+05 -2.608973465842e+05 -2.591073754014e+05 -2.573773926192e+05 -2.557049248479e+05 -2.540876056387e+05 -2.525231701048e+05 -2.510094507571e+05 -2.495443700942e+05 -2.481259339878e+05 -2.467522228385e+05 -2.454213823963e+05 -2.441316130134e+05 -2.428811560137e+05 -2.416682773474e+05 -2.404912343915e+05 -2.393481968725e+05 -2.382369931781e+05 -2.371542746750e+05 -2.360927571242e+05 -2.350309671690e+05 -2.855253240189e+05 -2.827437402571e+05 -2.801704211017e+05 -2.777075188889e+05 -2.753349677504e+05 -2.730464073536e+05 -2.708381917479e+05 -2.687071485965e+05 -2.666501953795e+05 -2.646643143118e+05 -2.627465746821e+05 -2.608941512767e+05 -2.591043318335e+05 -2.573745195929e+05 -2.557022305049e+05 -2.540850901051e+05 -2.525208266546e+05 -2.510072657935e+05 -2.495423227941e+05 -2.481239946327e+05 -2.467503520809e+05 -2.454195303767e+05 -2.441297208942e+05 -2.428791592246e+05 -2.416661073874e+05 -2.404888045776e+05 -2.393453135169e+05 -2.382330144739e+05 -2.371469929866e+05 -2.360750144250e+05 -2.349795978068e+05 -2.857735672527e+05 -2.828066269362e+05 -2.801837910228e+05 -2.777058392784e+05 -2.753283375372e+05 -2.730378875998e+05 -2.708288078183e+05 -2.686973346966e+05 -2.666402034814e+05 -2.646543247580e+05 -2.627367257585e+05 -2.608845477303e+05 -2.590950502401e+05 -2.573656124628e+05 -2.556937312591e+05 -2.540770158290e+05 -2.525131821003e+05 -2.510000451182e+05 -2.495355120196e+05 -2.481175737951e+05 -2.467442963664e+05 -2.454138114841e+05 -2.441243020738e+05 -2.428739781736e+05 -2.416610160316e+05 -2.404834042765e+05 -2.393385164648e+05 -2.382219271281e+05 -2.371241034525e+05 -2.360211395941e+05 -2.348431318554e+05 -2.868295111200e+05 -2.832122837631e+05 -2.803354735876e+05 -2.777432938434e+05 -2.753102015099e+05 -2.729909132501e+05 -2.707661851268e+05 -2.686260458243e+05 -2.665641848826e+05 -2.645759135480e+05 -2.626573630439e+05 -2.608051397904e+05 -2.590161661961e+05 -2.572875965452e+05 -2.556167707633e+05 -2.540011817164e+05 -2.524384525417e+05 -2.509263176900e+05 -2.494626028961e+05 -2.480452031996e+05 -2.466720520029e+05 -2.453410753138e+05 -2.440501085681e+05 -2.427967430167e+05 -2.415780178718e+05 -2.403897735089e+05 -2.392252225900e+05 -2.380716532394e+05 -2.369024984725e+05 -2.356292002076e+05 -2.341324433622e+05 -2.790976742609e+05 -2.791281695442e+05 -2.783630847316e+05 -2.769885325885e+05 -2.752959730506e+05 -2.734407381597e+05 -2.715103453428e+05 -2.695557407595e+05 -2.676098113710e+05 -2.656913889330e+05 -2.638120075987e+05 -2.619785974695e+05 -2.601951522260e+05 -2.584638007216e+05 -2.567855075936e+05 -2.551605577844e+05 -2.535889021231e+05 -2.520704226991e+05 -2.506051609662e+05 -2.491935455607e+05 -2.478366448984e+05 -2.465364951342e+05 -2.452965715257e+05 -2.441225132891e+05 -2.430228184767e+05 -2.420110540479e+05 -2.411112414189e+05 -2.403640178581e+05 -2.398442459678e+05 -2.396995468231e+05 -2.401846346847e+05 
        </DataArray>
        <DataArray type="Float64" Name="STRESS_3" format="ascii">
          -2.858712857136e+05 -2.832215773555e+05 -2.806679213016e+05 -2.782022186900e+05 -2.758213993161e+05 -2.735229263296e+05 -2.713041361679e+05 -2.691622214486e+05 -2.670943066321e+05 -2.650975145647e+05 -2.631690120812e+05 -2.613060392289e+05 -2.595059259822e+05 -2.577661016270e+05 -2.560840981038e+05 -2.544575505834e+05 -2.528841945701e+05 -2.513618626298e+05 -2.498884788627e+05 -2.484620529751e+05 -2.470806735278e+05 -2.457425000087e+05 -2.444457542398e+05 -2.431887099764e+05 -2.419696804559e+05 -2.407870002455e+05 -2.396389940417e+05 -2.385239047116e+05 -2.374396950550e+05 -2.363834425302e+05 -2.353490493508e+05 -2.858713944745e+05 -2.832215844913e+05 -2.806679256232e+05 -2.782022289233e+05 -2.758214128172e+05 -2.735229404957e+05 -2.713041492824e+05 -2.691622326048e+05 -2.670943154879e+05 -2.650975208919e+05 -2.631690158774e+05 -2.613060403950e+05 -2.595059245908e+05 -2.577660977068e+05 -2.560840917448e+05 -2.544575417420e+05 -2.528841833463e+05 -2.513618491130e+05 -2.498884630364e+05 -2.484620349530e+05 -2.470806532528e+05 -2.457424775371e+05 -2.444457294679e+05 -2.431886827626e+05 -2.419696503229e+05 -2.407869662765e+05 -2.396389542143e+05 -2.385238544904e+05 -2.374396235561e+05 -2.363833212618e+05 -2.353487950233e+05 -2.858723786877e+05 -2.832219077938e+05 -2.806681010889e+05 -2.782023537691e+05 -2.758215114840e+05 -2.735230207919e+05 -2.713042147297e+05 -2.691622852361e+05 -2.670943567171e+05 -2.650975517187e+05 -2.631690369608e+05 -2.613060523321e+05 -2.595059277695e+05 -2.577660924945e+05 -2.560840783318e+05 -2.544575203997e+05 -2.528841542479e+05 -2.513618123627e+05 -2.498884187205e+05 -2.484619830967e+05 -2.470805939808e+05 -2.457424107313e+05 -2.444456550229e+05 -2.431886004376e+05 -2.419695597385e+05 -2.407868664816e+05 -2.396388428655e+05 -2.385237248053e+05 -2.374394542547e+05 -2.363830435971e+05 -2.353481670535e+05 -2.858741040518e+05 -2.832224722040e+05 -2.806684061230e+05 -2.782025703460e+05 -2.758216823374e+05 -2.735231597668e+05 -2.713043279898e+05 -2.691623765385e+05 -2.670944284055e+05 -2.650976055788e+05 -2.631690742499e+05 -2.613060740489e+05 -2.595059346286e+05 -2.577660850290e+05 -2.560840570908e+05 -2.544574856435e+05 -2.528841063475e+05 -2.513617514544e+05 -2.498883450139e+05 -2.484618966235e+05 -2.470804947721e+05 -2.457422986963e+05 -2.444455299332e+05 -2.431884618765e+05 -2.419694068977e+05 -2.407866977803e+05 -2.396386541135e+05 -2.385235041274e+05 -2.374391642400e+05 -2.363825634771e+05 -2.353470715206e+05 -2.858767080185e+05 -2.832233150910e+05 -2.806688569270e+05 -2.782028880587e+05 -2.758219320403e+05 -2.735233623267e+05 -2.713044929708e+05 -2.691625094655e+05 -2.670945330427e+05 -2.650976845184e+05 -2.631691294898e+05 -2.613061070074e+05 -2.595059464423e+05 -2.577660765484e+05 -2.560840289883e+05 -2.544574383963e+05 -2.528840404024e+05 -2.513616670557e+05 -2.498882424255e+05 -2.484617758786e+05 -2.470803558071e+05 -2.457421413254e+05 -2.444453538299e+05 -2.431882663402e+05 -2.419691906335e+05 -2.407864582788e+05 -2.396383850726e+05 -2.385231874200e+05 -2.374387432049e+05 -2.363818546933e+05 -2.353454288661e+05 -2.858804089516e+05 -2.832244899727e+05 -2.806694725669e+05 -2.782033160432e+05 -2.758222654745e+05 -2.735236313291e+05 -2.713047111350e+05 -2.691626847736e+05 -2.670946707798e+05 -2.650977884982e+05 -2.631692025071e+05 -2.613061511060e+05 -2.595059631310e+05 -2.577660670097e+05 -2.560839940854e+05 -2.544573789863e+05 -2.528839567792e+05 -2.513615597009e+05 -2.498881114701e+05 -2.484616214694e+05 -2.470801777231e+05 -2.457419392675e+05 -2.444451271171e+05 -2.431880139627e+05 -2.419689107501e+05 -2.407861470982e+05 -2.396380335056e+05 -2.385227694399e+05 -2.374381775995e+05 -2.363808781126e+05 -2.353431119780e+05 -2.858855493106e+05 -2.832260737809e+05 -2.806702757874e+05 -2.782038615760e+05 -2.758226841910e+05 -2.735239655213e+05 -2.713049796778e+05 -2.691628988088e+05 -2.670948377478e+05 -2.650979136550e+05 -2.631692896198e+05 -2.613062028155e+05 -2.595059816470e+05 -2.577660538433e+05 -2.560839504187e+05 -2.544573055602e+05 -2.528838543406e+05 -2.513614286032e+05 -2.498879518816e+05 -2.484614333953e+05 -2.470799608578e+05 -2.457416930568e+05 -2.444448505311e+05 -2.431877054276e+05 -2.419685676202e+05 -2.407857639936e+05 -2.396375975183e+05 -2.385222439744e+05 -2.374374482690e+05 -2.363795738576e+05 -2.353399188179e+05 -2.858926855506e+05 -2.832281884953e+05 -2.806713008169e+05 -2.782045343519e+05 -2.758231885372e+05 -2.735243605251e+05 -2.713052918920e+05 -2.691631436786e+05 -2.670950254689e+05 -2.650980512450e+05 -2.631693822563e+05 -2.613062541781e+05 -2.595059944490e+05 -2.577660299879e+05 -2.560838914443e+05 -2.544572124984e+05 -2.528837278949e+05 -2.513612691985e+05 -2.498877596694e+05 -2.484612081868e+05 -2.470797021586e+05 -2.457413999341e+05 -2.444445215139e+05 -2.431873381963e+05 -2.419681582482e+05 -2.407853048615e+05 -2.396370704967e+05 -2.385215974545e+05 -2.374365211027e+05 -2.363778414357e+05 -2.353355155220e+05 -2.859027713547e+05 -2.832310495426e+05 -2.806726145276e+05 -2.782053582013e+05 -2.758237855399e+05 -2.735248147016e+05 -2.713056408356e+05 -2.691634091195e+05 -2.670952216073e+05 -2.650981879030e+05 -2.631694663214e+05 -2.613062907383e+05 -2.595059870147e+05 -2.577659810880e+05 -2.560838029718e+05 -2.544570857059e+05 -2.528835636710e+05 -2.513610678934e+05 -2.498875213510e+05 -2.484609324515e+05 -2.470793882049e+05 -2.457410462460e+05 -2.444441259313e+05 -2.431868971885e+05 -2.419676662046e+05 -2.407847508193e+05 -2.396364284326e+05 -2.385207934903e+05 -2.374353243358e+05 -2.363754971805e+05 -2.353293197104e+05 -2.859175372704e+05 -2.832350617565e+05 -2.806743569166e+05 -2.782063940244e+05 -2.758245028304e+05 -2.735253378208e+05 -2.713060245840e+05 -2.691636851054e+05 -2.670954103587e+05 -2.650983037015e+05 -2.631695189867e+05 -2.613062873351e+05 -2.595059323729e+05 -2.577658787490e+05 -2.560836553658e+05 -2.544568944339e+05 -2.528833296964e+05 -2.513607916019e+05 -2.498872026599e+05 -2.484605705217e+05 -2.470789816641e+05 -2.457405926395e+05 -2.444436219056e+05 -2.431863375233e+05 -2.419670424694e+05 -2.407840467054e+05 -2.396356052420e+05 -2.385197421483e+05 -2.374337042172e+05 -2.363721883247e+05 -2.353202569225e+05 -2.859403397688e+05 -2.832410134179e+05 -2.806768198203e+05 -2.782077780204e+05 -2.758254074967e+05 -2.735259584961e+05 -2.713064475491e+05 -2.691639589003e+05 -2.670955660673e+05 -2.650983630670e+05 -2.631694967846e+05 -2.613061943348e+05 -2.595057758773e+05 -2.577656639889e+05 -2.560833856646e+05 -2.544565719728e+05 -2.528829556183e+05 -2.513603661477e+05 -2.498867252060e+05 -2.484600394092e+05 -2.470783943931e+05 -2.457399454258e+05 -2.444429093635e+05 -2.431855515074e+05 -2.419661694901e+05 -2.407830602244e+05 -2.396344438094e+05 -2.385182379165e+05 -2.374313358707e+05 -2.363672130953e+05 -2.353062118846e+05 -2.859783278841e+05 -2.832505070559e+05 -2.806806190232e+05 -2.782098154885e+05 -2.758266422811e+05 -2.735267243760e+05 -2.713069027128e+05 -2.691641900147e+05 -2.670956251742e+05 -2.650982836418e+05 -2.631693021262e+05 -2.613059009725e+05 -2.595053954586e+05 -2.577652047151e+05 -2.560828527828e+05 -2.544559684891e+05 -2.528822826666e+05 -2.513596233667e+05 -2.498859110007e+05 -2.484591510070e+05 -2.470774276860e+05 -2.457388946130e+05 -2.444417649620e+05 -2.431842977251e+05 -2.419647780205e+05 -2.407814799735e+05 -2.396325713326e+05 -2.385158120849e+05 -2.374275262071e+05 -2.363590912238e+05 -2.352826162922e+05 -2.860491955327e+05 -2.832670942070e+05 -2.806870534590e+05 -2.782132999584e+05 -2.758286527464e+05 -2.735277838478e+05 -2.713073337024e+05 -2.691642065245e+05 -2.670953581617e+05 -2.650978077479e+05 -2.631686586847e+05 -2.613051132323e+05 -2.595044775790e+05 -2.577641660146e+05 -2.560816995388e+05 -2.544547055037e+05 -2.528809128842e+05 -2.513581487899e+05 -2.498843314928e+05 -2.484574636856e+05 -2.470756234215e+05 -2.457369541682e+05 -2.444396535493e+05 -2.431819603170e+05 -2.419621401697e+05 -2.407784506340e+05 -2.396290221375e+05 -2.385113879930e+05 -2.374207736402e+05 -2.363442791792e+05 -2.352381158385e+05 -2.862087832781e+05 -2.833011251404e+05 -2.806978263232e+05 -2.782195349319e+05 -2.758330482365e+05 -2.735304484230e+05 -2.713083855490e+05 -2.691639633644e+05 -2.670941808534e+05 -2.650959966448e+05 -2.631664256233e+05 -2.613025918051e+05 -2.595017459122e+05 -2.577612671306e+05 -2.560786562063e+05 -2.544515281458e+05 -2.528776016163e+05 -2.513546908009e+05 -2.498806959411e+05 -2.484535950464e+05 -2.470714380533e+05 -2.457323436675e+05 -2.444345036562e+05 -2.431761913624e+05 -2.419557668882e+05 -2.407716227976e+05 -2.396218905262e+05 -2.385033365885e+05 -2.374077950024e+05 -2.363114774657e+05 -2.351380703975e+05 -2.866912017280e+05 -2.834155985452e+05 -2.807127656586e+05 -2.782149168414e+05 -2.758300532426e+05 -2.735316175171e+05 -2.713116143759e+05 -2.691669082434e+05 -2.670953154641e+05 -2.650946105341e+05 -2.631623710883e+05 -2.612960340642e+05 -2.594929815754e+05 -2.577506099118e+05 -2.560663771295e+05 -2.544378322265e+05 -2.528626343376e+05 -2.513385644851e+05 -2.498635357747e+05 -2.484356017500e+05 -2.470529637590e+05 -2.457139743695e+05 -2.444171212250e+05 -2.431609623734e+05 -2.419439294915e+05 -2.407638189948e+05 -2.396165256442e+05 -2.384929834106e+05 -2.373718354328e+05 -2.362019920671e+05 -2.348529218767e+05 -2.882012831603e+05 -2.842851525984e+05 -2.811311631546e+05 -2.783611185317e+05 -2.758235613973e+05 -2.734454150484e+05 -2.711884792451e+05 -2.690312087135e+05 -2.669604981901e+05 -2.649677508040e+05 -2.630468965961e+05 -2.611933417632e+05 -2.594033902586e+05 -2.576739083964e+05 -2.560021255150e+05 -2.543855041822e+05 -2.528216513802e+05 -2.513082480133e+05 -2.498429807155e+05 -2.484234653604e+05 -2.470471462872e+05 -2.457111548010e+05 -2.444120913150e+05 -2.431456844026e+05 -2.419062354858e+05 -2.406856963652e+05 -2.394721112390e+05 -2.382469964104e+05 -2.369811364152e+05 -2.356575315746e+05 -2.341784679094e+05 -2.794058949883e+05 -2.792244634937e+05 -2.784030705374e+05 -2.770059923532e+05 -2.753031697326e+05 -2.734429672889e+05 -2.715105730327e+05 -2.695571694157e+05 -2.676117952372e+05 -2.656935941202e+05 -2.638142648143e+05 -2.619808258807e+05 -2.601973187325e+05 -2.584658976085e+05 -2.567875399259e+05 -2.551625359765e+05 -2.535908370006e+05 -2.520723214257e+05 -2.506070224877e+05 -2.491953541823e+05 -2.478383600805e+05 -2.465380342433e+05 -2.452977797166e+05 -2.441231091456e+05 -2.430233450170e+05 -2.420136426880e+05 -2.411176816430e+05 -2.403778963749e+05 -2.398733272252e+05 -2.397628285334e+05 -2.403435116287e+05 
        </DataArray>
        <DataArray type="Float64" Name="STRESS_XX" format="ascii">
          -1.040206038694e+03 -6.415599598397e+03 -1.156813713929e+04 -1.651893420123e+04 -2.128133047818e+04 -2.586644934285e+04 -3.028395206317e+04 -3.454243261440e+04 -3.864966474511e+04 -4.261276837023e+04 -4.643832540764e+04 -5.013246377180e+04 -5.370091803231e+04 -5.714907591232e+04 -6.048201259029e+04 -6.370451883948e+04 -6.682112149426e+04 -6.983610136718e+04 -7.275350597103e+04 -7.557715977863e+04 -7.831067136918e+04 -8.095743717845e+04 -8.352064241893e+04 -8.600325781301e+04 -8.840803296702e+04 -9.073748467329e+04 -9.299388369818e+04 -9.517924573159e+04 -9.729535629956e+04 -9.934392502339e+04 -1.013279017396e+05 -3.773160068615e+03 -9.074357920049e+03 -1.415334281245e+04 -1.903298938421e+04 -2.372677952476e+04 -2.824576972646e+04 -3.259951615928e+04 -3.679650616134e+04 -4.084441192765e+04 -4.475025710240e+04 -4.852053335656e+04 -5.216128290111e+04 -5.567815975696e+04 -5.907647505048e+04 -6.236123160776e+04 -6.553715119131e+04 -6.860869559040e+04 -7.158008367966e+04 -7.445530395699e+04 -7.723812521441e+04 -7.993210273808e+04 -8.254058289897e+04 -8.506670289509e+04 -8.751338828448e+04 -8.988334523414e+04 -9.217904827435e+04 -9.440272285181e+04 -9.655632389388e+04 -9.864151873337e+04 -1.006597021024e+05 -1.026126674601e+05 -1.186703525827e+04 -1.694847095022e+04 -2.180961871817e+04 -2.647854599730e+04 -3.096915362883e+04 -3.529229810639e+04 -3.945722524981e+04 -4.347210633158e+04 -4.734431223867e+04 -5.108058225992e+04 -5.468713983423e+04 -5.816977444395e+04 -6.153390076733e+04 -6.478460347433e+04 -6.792667051134e+04 -7.096462032346e+04 -7.390272129074e+04 -7.674500873232e+04 -7.949529693529e+04 -8.215718917711e+04 -8.473408384517e+04 -8.722917782947e+04 -8.964546709126e+04 -9.198574280339e+04 -9.425258297677e+04 -9.644833651319e+04 -9.857509494760e+04 -1.006346330965e+05 -1.026282671926e+05 -1.045564585169e+05 -1.064175683612e+05 -2.501091070184e+04 -2.973538019263e+04 -3.424275826472e+04 -3.856948919645e+04 -4.273014273552e+04 -4.673524864503e+04 -5.059354784684e+04 -5.431269857885e+04 -5.789958173450e+04 -6.136047514195e+04 -6.470116680944e+04 -6.792703541673e+04 -7.104310713606e+04 -7.405409874923e+04 -7.696444974234e+04 -7.977834759575e+04 -8.249974720331e+04 -8.513238557303e+04 -8.767979421592e+04 -9.014530752885e+04 -9.253206888800e+04 -9.484303288234e+04 -9.708096576199e+04 -9.924844063500e+04 -1.013478271842e+05 -1.033812704992e+05 -1.053506441968e+05 -1.072574303807e+05 -1.091023732516e+05 -1.108844122228e+05 -1.125963110557e+05 -4.269989622120e+04 -4.694376131629e+04 -5.097499712480e+04 -5.484119299142e+04 -5.855779529529e+04 -6.213488756608e+04 -6.558053075230e+04 -6.890169147074e+04 -7.210459153442e+04 -7.519488711068e+04 -7.817778072550e+04 -8.105809780864e+04 -8.384034169672e+04 -8.652873415395e+04 -8.912724558380e+04 -9.163961823921e+04 -9.406938475482e+04 -9.641988101944e+04 -9.869425793430e+04 -1.008954878948e+05 -1.030263709530e+05 -1.050895358594e+05 -1.070874397123e+05 -1.090223618757e+05 -1.108963916866e+05 -1.127113998886e+05 -1.144689665147e+05 -1.161701783727e+05 -1.178150062772e+05 -1.194003276587e+05 -1.209113188859e+05 -6.425456544697e+04 -6.791241134138e+04 -7.136337307710e+04 -7.466837478742e+04 -7.784388389277e+04 -8.089943009333e+04 -8.384224236442e+04 -8.667844402582e+04 -8.941345330107e+04 -9.205216888276e+04 -9.459907941345e+04 -9.705833640582e+04 -9.943380583916e+04 -1.017291063056e+05 -1.039476364010e+05 -1.060925964314e+05 -1.081670036704e+05 -1.101737058998e+05 -1.121153895507e+05 -1.139945865521e+05 -1.158136782056e+05 -1.175748962887e+05 -1.192803209014e+05 -1.209318737206e+05 -1.225313023626e+05 -1.240801427350e+05 -1.255796166297e+05 -1.270303269951e+05 -1.284312949622e+05 -1.297768591942e+05 -1.310428458058e+05 -8.884711954999e+04 -9.183566776935e+04 -9.462443602534e+04 -9.728912293412e+04 -9.984727808729e+04 -1.023077804627e+05 -1.046769042416e+05 -1.069598094622e+05 -1.091609969687e+05 -1.112845009052e+05 -1.133339948893e+05 -1.153128612977e+05 -1.172242394103e+05 -1.190710591717e+05 -1.208560668828e+05 -1.225818438578e+05 -1.242508205019e+05 -1.258652866571e+05 -1.274273992928e+05 -1.289391875600e+05 -1.304025550717e+05 -1.318192804746e+05 -1.331910137922e+05 -1.345192684148e+05 -1.358054019130e+05 -1.370505676123e+05 -1.382555775498e+05 -1.394204787547e+05 -1.405431955373e+05 -1.416151240995e+05 -1.426012350086e+05 -1.155333000578e+05 -1.177943901261e+05 -1.198643596517e+05 -1.218341782443e+05 -1.237224261964e+05 -1.255372435877e+05 -1.272838608877e+05 -1.289663899288e+05 -1.305883347210e+05 -1.321527906548e+05 -1.336625469757e+05 -1.351201511435e+05 -1.365279532776e+05 -1.378881361852e+05 -1.392027383804e+05 -1.404736694265e+05 -1.417027224660e+05 -1.428915823202e+05 -1.440418312247e+05 -1.451549524942e+05 -1.462323315277e+05 -1.472752551242e+05 -1.482849064984e+05 -1.492623557612e+05 -1.502085367251e+05 -1.511241870654e+05 -1.520096720689e+05 -1.528644289282e+05 -1.536851693931e+05 -1.544600168574e+05 -1.551418368975e+05 -1.432888790033e+05 -1.447913281632e+05 -1.461133064056e+05 -1.473603455059e+05 -1.485518534578e+05 -1.496951453043e+05 -1.507943520597e+05 -1.518524908103e+05 -1.528720271833e+05 -1.538550790237e+05 -1.548035150933e+05 -1.557190143126e+05 -1.566031056554e+05 -1.574571946096e+05 -1.582825834351e+05 -1.590804830090e+05 -1.598520237412e+05 -1.605982607439e+05 -1.613201786789e+05 -1.620186930164e+05 -1.626946502007e+05 -1.633488250917e+05 -1.639819151988e+05 -1.645945292541e+05 -1.651871598071e+05 -1.657601110426e+05 -1.663132798491e+05 -1.668454582153e+05 -1.673520581862e+05 -1.678176626131e+05 -1.681819797964e+05 -1.710494476991e+05 -1.717895461646e+05 -1.723627319727e+05 -1.728867575700e+05 -1.733814294285e+05 -1.738531417463e+05 -1.743049008132e+05 -1.747386210974e+05 -1.751557267526e+05 -1.755573562161e+05 -1.759444565270e+05 -1.763178371167e+05 -1.766782054987e+05 -1.770261894353e+05 -1.773623544509e+05 -1.776872125411e+05 -1.780012311383e+05 -1.783048355337e+05 -1.785984126419e+05 -1.788823097286e+05 -1.791568340104e+05 -1.794222479462e+05 -1.796787630559e+05 -1.799265259539e+05 -1.801655868305e+05 -1.803958141540e+05 -1.806166299615e+05 -1.808261616464e+05 -1.810184546695e+05 -1.811743125627e+05 -1.812192674184e+05 -1.977522860324e+05 -1.977524875948e+05 -1.976042168201e+05 -1.974326004091e+05 -1.972570474152e+05 -1.970828957205e+05 -1.969120270771e+05 -1.967452805104e+05 -1.965830719594e+05 -1.964255949625e+05 -1.962729079232e+05 -1.961249832557e+05 -1.959817371464e+05 -1.958430492073e+05 -1.957087756886e+05 -1.955787563069e+05 -1.954528204210e+05 -1.953307875096e+05 -1.952124690502e+05 -1.950976656472e+05 -1.949861653500e+05 -1.948777375712e+05 -1.947721255817e+05 -1.946690306223e+05 -1.945680754831e+05 -1.944687045050e+05 -1.943698711172e+05 -1.942690289451e+05 -1.941587937470e+05 -1.940158990030e+05 -1.937503148357e+05 -2.223796295117e+05 -2.216842994672e+05 -2.208683716590e+05 -2.200548753202e+05 -2.192613134888e+05 -2.184917439660e+05 -2.177469393257e+05 -2.170267184807e+05 -2.163305521582e+05 -2.156577536194e+05 -2.150075577583e+05 -2.143791627299e+05 -2.137717538163e+05 -2.131845200207e+05 -2.126166628604e+05 -2.120674016872e+05 -2.115359767156e+05 -2.110216484444e+05 -2.105236972230e+05 -2.100414193456e+05 -2.095741237978e+05 -2.091211249440e+05 -2.086817328914e+05 -2.082552347897e+05 -2.078408519749e+05 -2.074376251337e+05 -2.070440546595e+05 -2.066569211162e+05 -2.062673194951e+05 -2.058473480790e+05 -2.052886458128e+05 -2.440051315369e+05 -2.426694180105e+05 -2.412623835827e+05 -2.398848312553e+05 -2.385489533968e+05 -2.372570651251e+05 -2.360088931680e+05 -2.348033433357e+05 -2.336390284373e+05 -2.325144617060e+05 -2.314281339801e+05 -2.303785518059e+05 -2.293642528499e+05 -2.283838178987e+05 -2.274358730886e+05 -2.265190944229e+05 -2.256322053938e+05 -2.247739774867e+05 -2.239432251898e+05 -2.231388023651e+05 -2.223595946686e+05 -2.216045102334e+05 -2.208724664716e+05 -2.201623679456e+05 -2.194730655809e+05 -2.188032370134e+05 -2.181509946978e+05 -2.175124883647e+05 -2.168770161857e+05 -2.162103554726e+05 -2.153790240148e+05 -2.618584993517e+05 -2.599134065145e+05 -2.580041705062e+05 -2.561609107051e+05 -2.543795926498e+05 -2.526585899871e+05 -2.509966097470e+05 -2.493920260489e+05 -2.478428963408e+05 -2.463471190078e+05 -2.449025566920e+05 -2.435071092614e+05 -2.421587466533e+05 -2.408555223919e+05 -2.395955737021e+05 -2.383771192445e+05 -2.371984509215e+05 -2.360579279249e+05 -2.349539673190e+05 -2.338850354157e+05 -2.328496399814e+05 -2.318463236082e+05 -2.308736634866e+05 -2.299302725596e+05 -2.290147902158e+05 -2.281257717427e+05 -2.272611613817e+05 -2.264162568081e+05 -2.255766956150e+05 -2.246956808654e+05 -2.235984110744e+05 -2.754981159880e+05 -2.728233813813e+05 -2.704547219170e+05 -2.682447062407e+05 -2.661331460930e+05 -2.640985284177e+05 -2.621331835376e+05 -2.602339308078e+05 -2.583987790729e+05 -2.566258722387e+05 -2.549132254026e+05 -2.532587152097e+05 -2.516601355075e+05 -2.501152560229e+05 -2.486218689811e+05 -2.471778207604e+05 -2.457810343099e+05 -2.444295241698e+05 -2.431214100332e+05 -2.418549291745e+05 -2.406284503820e+05 -2.394404884329e+05 -2.382897066015e+05 -2.371748790147e+05 -2.360947192601e+05 -2.350473424412e+05 -2.340287179377e+05 -2.330284238650e+05 -2.320181544766e+05 -2.309206912502e+05 -2.294990781628e+05 -2.850300626406e+05 -2.815826075377e+05 -2.785811968995e+05 -2.758910089207e+05 -2.734133864550e+05 -2.710902980889e+05 -2.688876281770e+05 -2.667846269307e+05 -2.647680458504e+05 -2.628289453098e+05 -2.609609370646e+05 -2.591591891316e+05 -2.574198489867e+05 -2.557396956532e+05 -2.541159263053e+05 -2.525460152670e+05 -2.510276173612e+05 -2.495584926469e+05 -2.481364359032e+05 -2.467591991846e+05 -2.454243895058e+05 -2.441293216418e+05 -2.428707827343e+05 -2.416446443574e+05 -2.404451894844e+05 -2.392639012099e+05 -2.380871914084e+05 -2.368919755093e+05 -2.356367004373e+05 -2.342424224929e+05 -2.325379806345e+05 -2.793902984744e+05 -2.792223293468e+05 -2.783973400022e+05 -2.770007413449e+05 -2.752993878137e+05 -2.734404571403e+05 -2.715087246986e+05 -2.695546978888e+05 -2.676091330651e+05 -2.656909382638e+05 -2.638116986909e+05 -2.619783767185e+05 -2.601949858672e+05 -2.584636669421e+05 -2.567853915521e+05 -2.551604483741e+05 -2.535887896902e+05 -2.520702971759e+05 -2.506050100056e+05 -2.491933523129e+05 -2.478363850766e+05 -2.465361330614e+05 -2.452960550765e+05 -2.441217685059e+05 -2.430222738987e+05 -2.420121352951e+05 -2.411156733431e+05 -2.403755410553e+05 -2.398713639455e+05 -2.397625188246e+05 -2.403381517857e+05 
        </DataArray>
        <DataArray type="Float64" Name="STRESS_XY" format="ascii">
          2.449190100764e+02 1.644899280655e+02 1.189650067514e+02 8.905484283229e+01 6.861032384172e+01 5.438150699341e+01 4.435865560247e+01 3.721598657145e+01 3.205641789202e+01 2.826560794952e+01 2.541897735335e+01 2.322000528509e+01 2.145849818885e+01 1.998169257003e+01 1.867423544026e+01 1.744368425855e+01 1.620964942471e+01 1.489522325325e+01 1.341937516907e+01 1.168995274440e+01 9.595997012723e+00 6.999474207132e+00 3.725197846094e+00 -4.511582515414e-01 -5.817231284907e+00 -1.273892816170e+01 -2.166998017470e+01 -3.313185097836e+01 -4.758306591802e+01 -6.490821909258e+01 -8.194710829401e+01 2.776553501243e+04 2.699773845149e+04 2.624859415711e+04 2.552571807741e+04 2.482906771870e+04 2.415764569080e+04 2.351032325711e+04 2.288600485803e+04 2.228365574878e+04 2.170230182034e+04 2.114102512937e+04 2.059895888074e+04 2.007528339098e+04 1.956922244606e+04 1.908004030384e+04 1.860703906382e+04 1.814955630653e+04 1.770696310263e+04 1.727866217994e+04 1.686408639622e+04 1.646269735526e+04 1.607398420422e+04 1.569746257045e+04 1.533267354433e+04 1.497918136075e+04 1.463656761717e+04 1.430441136542e+04 1.398222300229e+04 1.366922244893e+04 1.336360825279e+04 1.305913181540e+04 5.446525615386e+04 5.295820080339e+04 5.148853571621e+04 5.007052609563e+04 4.870398766773e+04 4.738694230562e+04 4.611717125775e+04 4.489252460081e+04 4.371097230718e+04 4.257060364803e+04 4.146961791429e+04 4.040631492827e+04 3.937908679712e+04 3.838641087346e+04 3.742684401320e+04 3.649901723128e+04 3.560163111743e+04 3.473345195983e+04 3.389330822967e+04 3.308008744113e+04 3.229273341236e+04 3.153024410215e+04 3.079166954345e+04 3.007610942338e+04 2.938270922342e+04 2.871064875095e+04 2.805910441940e+04 2.742712225040e+04 2.681319396321e+04 2.621385777677e+04 2.561714115537e+04 7.907435426788e+04 7.688398006619e+04 7.474993452812e+04 7.269120863183e+04 7.070727762540e+04 6.879521466455e+04 6.695178670906e+04 6.517387001560e+04 6.345851690119e+04 6.180295338900e+04 6.020456521697e+04 5.866088408225e+04 5.716957567142e+04 5.572842960409e+04 5.433535061885e+04 5.298835124541e+04 5.168554509804e+04 5.042514112495e+04 4.920543845837e+04 4.802482201919e+04 4.688175857059e+04 4.577479335738e+04 4.470254723032e+04 4.366371333280e+04 4.265705165925e+04 4.168137286100e+04 4.073548634709e+04 3.981802393828e+04 3.892685176366e+04 3.805712728778e+04 3.719219452679e+04 1.006484584693e+05 9.785587688117e+04 9.513893734564e+04 9.251849326940e+04 8.999338059338e+04 8.755976799916e+04 8.521351778053e+04 8.295064918818e+04 8.076740948906e+04 7.866026793793e+04 7.662589718103e+04 7.466115568944e+04 7.276307241491e+04 7.092883408281e+04 6.915577396859e+04 6.744136247662e+04 6.578319865596e+04 6.417900295456e+04 6.262661060203e+04 6.112396597862e+04 5.966911763517e+04 5.826021411750e+04 5.689550016844e+04 5.557331283040e+04 5.429207467474e+04 5.305027497810e+04 5.184640805910e+04 5.067876498496e+04 4.954473717376e+04 4.843851516817e+04 4.734030001883e+04 1.183599905476e+05 1.150682312600e+05 1.118720772561e+05 1.087904538046e+05 1.058211565628e+05 1.029595016926e+05 1.002005851741e+05 9.753971780479e+04 9.497248518958e+04 9.249473518647e+04 9.010255523970e+04 8.779225128672e+04 8.556032980092e+04 8.340348264021e+04 8.131857409739e+04 7.930262964491e+04 7.735282614353e+04 7.546648299012e+04 7.364105477278e+04 7.187412432183e+04 7.016339703898e+04 6.850669588002e+04 6.690195710161e+04 6.534722579504e+04 6.384064853213e+04 6.238045392918e+04 6.096488781482e+04 5.959199524495e+04 5.825888975979e+04 5.695933677200e+04 5.567241679538e+04 1.315300575959e+05 1.278598964135e+05 1.243063832078e+05 1.208817905770e+05 1.175823643374e+05 1.144026212523e+05 1.113370521791e+05 1.083804337905e+05 1.055278582562e+05 1.027747114505e+05 1.001166459277e+05 9.754955704657e+04 9.506956296584e+04 9.267298792547e+04 9.035634768898e+04 8.811633713230e+04 8.594981925570e+04 8.385381567337e+04 8.182549800833e+04 7.986218046966e+04 7.796131351340e+04 7.612047829545e+04 7.433738199430e+04 7.260985319329e+04 7.093583492174e+04 6.931336660389e+04 6.774052470290e+04 6.621522208970e+04 6.473453441050e+04 6.329246673936e+04 6.186947020736e+04 1.396546832895e+05 1.357396703581e+05 1.319640951527e+05 1.283278625096e+05 1.248250372411e+05 1.214493821958e+05 1.181949591962e+05 1.150562037774e+05 1.120279017073e+05 1.091051538516e+05 1.062833448064e+05 1.035581171450e+05 1.009253499426e+05 9.838114103341e+04 9.592179152904e+04 9.354379275773e+04 9.124381451054e+04 8.901869495613e+04 8.686543151557e+04 8.478117309097e+04 8.276321317666e+04 8.080898417844e+04 7.891605252798e+04 7.708211426020e+04 7.530498934165e+04 7.358260795520e+04 7.191296630142e+04 7.029397603852e+04 6.872295559726e+04 6.719493725606e+04 6.569470698104e+04 1.424244148261e+05 1.384052177968e+05 1.345510383940e+05 1.308425497795e+05 1.272708560303e+05 1.238289915603e+05 1.205107712059e+05 1.173104931508e+05 1.142228350608e+05 1.112428005305e+05 1.083656835452e+05 1.055870412753e+05 1.029026721356e+05 1.003085975040e+05 9.780104602752e+04 9.537644037006e+04 9.303138506463e+04 9.076265641700e+04 8.856719308598e+04 8.644208828945e+04 8.438458269104e+04 8.239205875417e+04 8.046203594792e+04 7.859216703982e+04 7.678023458180e+04 7.502414511992e+04 7.332191132642e+04 7.167158975725e+04 7.007106435951e+04 6.851731306170e+04 6.700293995477e+04 1.397366334488e+05 1.357547692114e+05 1.319679562066e+05 1.283292618537e+05 1.248258515461e+05 1.214500181680e+05 1.181955067778e+05 1.150566840944e+05 1.120283212165e+05 1.091055158751e+05 1.062836520677e+05 1.035583723256e+05 1.009255556827e+05 9.838130006841e+04 9.592190661272e+04 9.354386678597e+04 9.124385040966e+04 8.901869590752e+04 8.686540085548e+04 8.478111462535e+04 8.276313121541e+04 8.080888402286e+04 7.891594131226e+04 7.708200370933e+04 7.530490424082e+04 7.358261402899e+04 7.191326453214e+04 7.029521837376e+04 6.872729635282e+04 6.720949960704e+04 6.574638229255e+04 1.317002673467e+05 1.278911737315e+05 1.243143772391e+05 1.208846744819e+05 1.175840290188e+05 1.144039146891e+05 1.113381631853e+05 1.083814074719e+05 1.055287087095e+05 1.027754463311e+05 1.001172714104e+05 9.755007902467e+04 9.506998710669e+04 9.267331994163e+04 9.035659320882e+04 8.811650202520e+04 8.594990951755e+04 8.385383780224e+04 8.182545890375e+04 7.986208801486e+04 7.796117688764e+04 7.612030887748e+04 7.433719529592e+04 7.260967427624e+04 7.093571589802e+04 6.931344407425e+04 6.774121568608e+04 6.621788010083e+04 6.474363358744e+04 6.332280156709e+04 6.197697142188e+04 1.186331461299e+05 1.151182105641e+05 1.118849196826e+05 1.087950899150e+05 1.058237955176e+05 1.029615256221e+05 1.002023139184e+05 9.754123056074e+04 9.497380636815e+04 9.249587796674e+04 9.010353049782e+04 8.779306949522e+04 8.556100093059e+04 8.340401632921e+04 8.131897959532e+04 7.930291625950e+04 7.735300334475e+04 7.546656115110e+04 7.364104535109e+04 7.187404070264e+04 7.016325526033e+04 6.850651586556e+04 6.690176532064e+04 6.534706324180e+04 6.384059860741e+04 6.238073597547e+04 6.096617407505e+04 5.959646479216e+04 5.827372125822e+04 5.700823987138e+04 5.584538403488e+04 1.010533088097e+05 9.792940902886e+04 9.515833487793e+04 9.252577201760e+04 8.999747598400e+04 8.756277887572e+04 8.521601655666e+04 8.295281442693e+04 8.076930205579e+04 7.866191170748e+04 7.662730648250e+04 7.466234341906e+04 7.276405283029e+04 7.092962205500e+04 6.915638543117e+04 6.744181371715e+04 6.578350719555e+04 6.417918732027e+04 6.262669119170e+04 6.112396486111e+04 5.966905890109e+04 5.826012489477e+04 5.689541503074e+04 5.557328979867e+04 5.429224384673e+04 5.305098921545e+04 5.184871303872e+04 5.068592533032e+04 4.956730761434e+04 4.851136147392e+04 4.759754072053e+04 7.966902693600e+04 7.698964695204e+04 7.477964052548e+04 7.270446012596e+04 7.071540310386e+04 6.880080044827e+04 6.695583636679e+04 6.517696233615e+04 6.346100124118e+04 6.180502521281e+04 6.020632588263e+04 5.866238451380e+04 5.717084455351e+04 5.572948771364e+04 5.433621750956e+04 5.298904630060e+04 5.168608725187e+04 5.042554700405e+04 4.920572241898e+04 4.802499848916e+04 4.688184950933e+04 4.577484400991e+04 4.470265310890e+04 4.366406591722e+04 4.265801693362e+04 4.168367019149e+04 4.074073455573e+04 3.983070327502e+04 3.896147726893e+04 3.816375978794e+04 3.757121833751e+04 5.539092625590e+04 5.310621318530e+04 5.152587540041e+04 5.009416586103e+04 4.872577182905e+04 4.740547971449e+04 4.613115746509e+04 4.490201222203e+04 4.371675585870e+04 4.257366626755e+04 4.147084649269e+04 4.040639782805e+04 3.937850662501e+04 3.838547879293e+04 3.742574786362e+04 3.649787212161e+04 3.560052831147e+04 3.473250467642e+04 3.389269365743e+04 3.308008328631e+04 3.229374309543e+04 3.153279922905e+04 3.079639012100e+04 3.008359672486e+04 2.939336289637e+04 2.872451161994e+04 2.807628619642e+04 2.745088785620e+04 2.686275930074e+04 2.636935721050e+04 2.620793789422e+04 2.999240377075e+04 2.724855008096e+04 2.607189581761e+04 2.529236330021e+04 2.463548640984e+04 2.401977553097e+04 2.342176188354e+04 2.283585238103e+04 2.226178358595e+04 2.170059288905e+04 2.115335100252e+04 2.062081384869e+04 2.010337943941e+04 1.960113212177e+04 1.911390283947e+04 1.864131951126e+04 1.818284248812e+04 1.773778534198e+04 1.730532319842e+04 1.688449297032e+04 1.647419432598e+04 1.607320768456e+04 1.568026591712e+04 1.529426551515e+04 1.491482274564e+04 1.454368131369e+04 1.418825714016e+04 1.387065921674e+04 1.365108209437e+04 1.368969619422e+04 1.447604473159e+04 -2.065801804928e+03 7.659470842217e+02 1.243293854330e+03 1.175240844397e+03 9.839078164488e+02 7.905367774720e+02 6.264534261203e+02 4.956509720018e+02 3.943199928342e+02 3.171058957861e+02 2.590555931214e+02 2.161196731715e+02 1.851775078432e+02 1.639218452259e+02 1.507218270496e+02 1.445017967163e+02 1.446469204012e+02 1.509325609643e+02 1.634736849100e+02 1.826847488577e+02 2.092389554260e+02 2.440009853673e+02 2.878895505922e+02 3.415699490865e+02 4.047471198358e+02 4.745243274610e+02 5.414927445682e+02 5.801691092032e+02 5.248949840279e+02 2.073567052155e+02 -8.662082934187e+02 
        </DataArray>
        <DataArray type="Float64" Name="STRESS_YY" format="ascii">
          -2.853296004258e+05 -2.827005128138e+05 -2.801602005645e+05 -2.777068561295e+05 -2.753382445617e+05 -2.730518803865e+05 -2.708450299015e+05 -2.687148195483e+05 -2.666583285643e+05 -2.646726525911e+05 -2.627549440899e+05 -2.609024373692e+05 -2.591124623162e+05 -2.573824516788e+05 -2.557099428956e+05 -2.540925776275e+05 -2.525280981221e+05 -2.510143432177e+05 -2.495492423367e+05 -2.481308090202e+05 -2.467571335750e+05 -2.454263745655e+05 -2.441367494821e+05 -2.428865236684e+05 -2.416739976716e+05 -2.404974911012e+05 -2.393553216617e+05 -2.382457717239e+05 -2.371670233350e+05 -2.361169982988e+05 -2.350929958306e+05 -2.853297603148e+05 -2.827005410151e+05 -2.801601977448e+05 -2.777068424573e+05 -2.753382252715e+05 -2.730518574487e+05 -2.708450041340e+05 -2.687147914439e+05 -2.666582985603e+05 -2.646726208859e+05 -2.627549109298e+05 -2.609024028031e+05 -2.591124264856e+05 -2.573824146387e+05 -2.557099047476e+05 -2.540925383188e+05 -2.525280577105e+05 -2.510143017517e+05 -2.495491997561e+05 -2.481307653670e+05 -2.467570887360e+05 -2.454263285583e+05 -2.441367021814e+05 -2.428864750010e+05 -2.416739474263e+05 -2.404974390095e+05 -2.393552671352e+05 -2.382457133450e+05 -2.371669572036e+05 -2.361169120916e+05 -2.350928479096e+05 -2.853302556992e+05 -2.827006308041e+05 -2.801601921643e+05 -2.777068034377e+05 -2.753381692157e+05 -2.730517900290e+05 -2.708449280918e+05 -2.687147084005e+05 -2.666582096711e+05 -2.646725269568e+05 -2.627548124413e+05 -2.609023002116e+05 -2.591123200715e+05 -2.573823046514e+05 -2.557097912584e+05 -2.540924215006e+05 -2.525279376309e+05 -2.510141784091e+05 -2.495490731280e+05 -2.481306353684e+05 -2.467569553686e+05 -2.454261915682e+05 -2.441365613319e+05 -2.428863299182e+05 -2.416737976010e+05 -2.404972835131e+05 -2.393551041968e+05 -2.382455386585e+05 -2.371667585311e+05 -2.361166517250e+05 -2.350923975325e+05 -2.853311343174e+05 -2.827007973278e+05 -2.801601915649e+05 -2.777067446797e+05 -2.753380808895e+05 -2.730516821714e+05 -2.708448054566e+05 -2.687145739965e+05 -2.666580653562e+05 -2.646723741465e+05 -2.627546520843e+05 -2.609021330340e+05 -2.591121465856e+05 -2.573821251821e+05 -2.557096061488e+05 -2.540922308368e+05 -2.525277416078e+05 -2.510139769839e+05 -2.495488663202e+05 -2.481304230339e+05 -2.467567373434e+05 -2.454259675340e+05 -2.441363308383e+05 -2.428860923347e+05 -2.416735519280e+05 -2.404970282134e+05 -2.393548360922e+05 -2.382452502422e+05 -2.371664282633e+05 -2.361162133537e+05 -2.350916255828e+05 -2.853324831619e+05 -2.827010667181e+05 -2.801602087142e+05 -2.777066746238e+05 -2.753379672021e+05 -2.730515398384e+05 -2.708446418688e+05 -2.687143935182e+05 -2.666578709519e+05 -2.646721677961e+05 -2.627544353297e+05 -2.609019068889e+05 -2.591119118165e+05 -2.573818823261e+05 -2.557093556147e+05 -2.540919728269e+05 -2.525274762931e+05 -2.510137043641e+05 -2.495485864096e+05 -2.481301355928e+05 -2.467564420376e+05 -2.454256638923e+05 -2.441360182227e+05 -2.428857697120e+05 -2.416732177805e+05 -2.404966801596e+05 -2.393544693738e+05 -2.382448533648e+05 -2.371659686835e+05 -2.361155904223e+05 -2.350904970627e+05 -2.853344421786e+05 -2.827014784418e+05 -2.801602609332e+05 -2.777066041940e+05 -2.753378363523e+05 -2.730513702078e+05 -2.708444438691e+05 -2.687141734165e+05 -2.666576328643e+05 -2.646719146453e+05 -2.627541691987e+05 -2.609016292628e+05 -2.591116236903e+05 -2.573815844473e+05 -2.557090484541e+05 -2.540916568659e+05 -2.525271514850e+05 -2.510133708647e+05 -2.495482440093e+05 -2.481297840846e+05 -2.467560808586e+05 -2.454252923751e+05 -2.441356352929e+05 -2.428853739292e+05 -2.416728070304e+05 -2.404962508913e+05 -2.393540147540e+05 -2.382443569008e+05 -2.371653837611e+05 -2.361147725332e+05 -2.350889545690e+05 -2.853372315414e+05 -2.827020904880e+05 -2.801603710556e+05 -2.777065457880e+05 -2.753376969177e+05 -2.730511801901e+05 -2.708442176428e+05 -2.687139196761e+05 -2.666573574246e+05 -2.646716215572e+05 -2.627538612347e+05 -2.609013082976e+05 -2.591112912574e+05 -2.573812414742e+05 -2.557086955964e+05 -2.540912944037e+05 -2.525267797310e+05 -2.510129897140e+05 -2.495478532085e+05 -2.481293832181e+05 -2.467556691696e+05 -2.454248688132e+05 -2.441351983316e+05 -2.428849214935e+05 -2.416723360887e+05 -2.404957564300e+05 -2.393534871102e+05 -2.382437729106e+05 -2.371646776556e+05 -2.361137407866e+05 -2.350869032821e+05 -2.853412051166e+05 -2.827029911778e+05 -2.801605700028e+05 -2.777065137024e+05 -2.753375568248e+05 -2.730509746045e+05 -2.708439668802e+05 -2.687136358589e+05 -2.666570485187e+05 -2.646712929664e+05 -2.627535168585e+05 -2.609009507801e+05 -2.591109224394e+05 -2.573808625324e+05 -2.557083074055e+05 -2.540908973811e+05 -2.525263740052e+05 -2.510125751590e+05 -2.495474294295e+05 -2.481289494497e+05 -2.467552243269e+05 -2.454244113344e+05 -2.441347260509e+05 -2.428844314127e+05 -2.416718237905e+05 -2.404952148503e+05 -2.393529026406e+05 -2.382431127827e+05 -2.371638492021e+05 -2.361124561781e+05 -2.350841798346e+05 -2.853469567753e+05 -2.827043237115e+05 -2.801609038486e+05 -2.777065248919e+05 -2.753374217657e+05 -2.730507538730e+05 -2.708436893571e+05 -2.687133187052e+05 -2.666567029169e+05 -2.646709265465e+05 -2.627531348471e+05 -2.609005569001e+05 -2.591105190969e+05 -2.573804513120e+05 -2.557078893433e+05 -2.540904729338e+05 -2.525259433089e+05 -2.510121378355e+05 -2.495469848055e+05 -2.481284963422e+05 -2.467547611082e+05 -2.454239356226e+05 -2.441342347163e+05 -2.428839199665e+05 -2.416712859112e+05 -2.404946403240e+05 -2.393522718590e+05 -2.382423787359e+05 -2.371628788791e+05 -2.361108353712e+05 -2.350804893300e+05 -2.853555410644e+05 -2.827063349145e+05 -2.801614462148e+05 -2.777066008945e+05 -2.753372917733e+05 -2.730505076517e+05 -2.708433691139e+05 -2.687129495537e+05 -2.666563011265e+05 -2.646705032789e+05 -2.627526975898e+05 -2.609001108298e+05 -2.591100675799e+05 -2.573799965951e+05 -2.557074326921e+05 -2.540900148984e+05 -2.525254838277e+05 -2.510116762639e+05 -2.495465200199e+05 -2.481280264269e+05 -2.467542835278e+05 -2.454234466752e+05 -2.441337296559e+05 -2.428833921117e+05 -2.416707257271e+05 -2.404940325806e+05 -2.393515873920e+05 -2.382415480153e+05 -2.371617049974e+05 -2.361087030852e+05 -2.350752762449e+05 -2.853689715531e+05 -2.827094780041e+05 -2.801623225138e+05 -2.777067672092e+05 -2.753371507120e+05 -2.730501981013e+05 -2.708429568360e+05 -2.687124732679e+05 -2.666557857485e+05 -2.646699659328e+05 -2.627521494624e+05 -2.608995598108e+05 -2.591095186806e+05 -2.573794530931e+05 -2.557068962589e+05 -2.540894862250e+05 -2.525249626202e+05 -2.510111613409e+05 -2.495460093436e+05 -2.481275168862e+05 -2.467537709322e+05 -2.454229252858e+05 -2.441331918449e+05 -2.428828273403e+05 -2.416701189620e+05 -2.404933597236e+05 -2.393508028288e+05 -2.382405443720e+05 -2.371601781787e+05 -2.361056937027e+05 -2.350674383287e+05 -2.853914934677e+05 -2.827146567927e+05 -2.801637581680e+05 -2.777070483251e+05 -2.753369348265e+05 -2.730497143767e+05 -2.708423167764e+05 -2.687117421574e+05 -2.666550053731e+05 -2.646691636832e+05 -2.627513439470e+05 -2.608987634062e+05 -2.591087393545e+05 -2.573786958872e+05 -2.557061637929e+05 -2.540887792627e+05 -2.525242803484e+05 -2.510105015614e+05 -2.495453684195e+05 -2.481268895710e+05 -2.467531500084e+05 -2.454223012187e+05 -2.441325513655e+05 -2.428821522939e+05 -2.416693827171e+05 -2.404925209784e+05 -2.393497861697e+05 -2.382391764483e+05 -2.371579612189e+05 -2.361010163876e+05 -2.350546025635e+05 -2.854334287088e+05 -2.827239427441e+05 -2.801661752284e+05 -2.777074379076e+05 -2.753364535398e+05 -2.730487538295e+05 -2.708410785179e+05 -2.687103526264e+05 -2.666535467896e+05 -2.646676892005e+05 -2.627498875716e+05 -2.608973465842e+05 -2.591073754014e+05 -2.573773926192e+05 -2.557049248479e+05 -2.540876056387e+05 -2.525231701048e+05 -2.510094507571e+05 -2.495443700942e+05 -2.481259339878e+05 -2.467522228385e+05 -2.454213823963e+05 -2.441316130134e+05 -2.428811560137e+05 -2.416682773474e+05 -2.404912343915e+05 -2.393481968725e+05 -2.382369931781e+05 -2.371542746750e+05 -2.360927571242e+05 -2.350309671690e+05 -2.855253240189e+05 -2.827437402571e+05 -2.801704211017e+05 -2.777075188889e+05 -2.753349677504e+05 -2.730464073536e+05 -2.708381917479e+05 -2.687071485965e+05 -2.666501953795e+05 -2.646643143118e+05 -2.627465746821e+05 -2.608941512767e+05 -2.591043318335e+05 -2.573745195929e+05 -2.557022305049e+05 -2.540850901051e+05 -2.525208266546e+05 -2.510072657935e+05 -2.495423227941e+05 -2.481239946327e+05 -2.467503520809e+05 -2.454195303767e+05 -2.441297208942e+05 -2.428791592246e+05 -2.416661073874e+05 -2.404888045776e+05 -2.393453135169e+05 -2.382330144739e+05 -2.371469929866e+05 -2.360750144250e+05 -2.349795978068e+05 -2.857735672527e+05 -2.828066269362e+05 -2.801837910228e+05 -2.777058392784e+05 -2.753283375372e+05 -2.730378875998e+05 -2.708288078183e+05 -2.686973346966e+05 -2.666402034814e+05 -2.646543247580e+05 -2.627367257585e+05 -2.608845477303e+05 -2.590950502401e+05 -2.573656124628e+05 -2.556937312591e+05 -2.540770158290e+05 -2.525131821003e+05 -2.510000451182e+05 -2.495355120196e+05 -2.481175737951e+05 -2.467442963664e+05 -2.454138114841e+05 -2.441243020738e+05 -2.428739781736e+05 -2.416610160316e+05 -2.404834042765e+05 -2.393385164648e+05 -2.382219271281e+05 -2.371241034525e+05 -2.360211395941e+05 -2.348431318554e+05 -2.868295111200e+05 -2.832122837631e+05 -2.803354735876e+05 -2.777432938434e+05 -2.753102015099e+05 -2.729909132501e+05 -2.707661851268e+05 -2.686260458243e+05 -2.665641848826e+05 -2.645759135480e+05 -2.626573630439e+05 -2.608051397904e+05 -2.590161661961e+05 -2.572875965452e+05 -2.556167707633e+05 -2.540011817164e+05 -2.524384525417e+05 -2.509263176900e+05 -2.494626028961e+05 -2.480452031996e+05 -2.466720520029e+05 -2.453410753138e+05 -2.440501085681e+05 -2.427967430167e+05 -2.415780178718e+05 -2.403897735089e+05 -2.392252225900e+05 -2.380716532394e+05 -2.369024984725e+05 -2.356575315746e+05 -2.341784679094e+05 -2.790976742609e+05 -2.791281695442e+05 -2.783630847316e+05 -2.769885325885e+05 -2.752959730506e+05 -2.734407381597e+05 -2.715105730327e+05 -2.695571694157e+05 -2.676117952372e+05 -2.656935941202e+05 -2.638142648143e+05 -2.619808258807e+05 -2.601973187325e+05 -2.584658976085e+05 -2.567875399259e+05 -2.551625359765e+05 -2.535908370006e+05 -2.520723214257e+05 -2.506070224877e+05 -2.491953541823e+05 -2.478383600805e+05 -2.465380342433e+05 -2.452977797166e+05 -2.441231091456e+05 -2.430228184767e+05 -2.420110540479e+05 -2.411112414189e+05 -2.403640178581e+05 -2.398442459678e+05 -2.396995468231e+05 -2.401846346847e+05 
        </DataArray>
        <DataArray type="Float64" Name="STRESS_ZZ" format="ascii">
          -2.858710751140e+05 -2.832214796086e+05 -2.806678687089e+05 -2.782021883833e+05 -2.758213808224e+05 -2.735229143882e+05 -2.713041280039e+05 -2.691622155453e+05 -2.670943021338e+05 -2.650975109737e+05 -2.631690090999e+05 -2.613060366757e+05 -2.595059237448e+05 -2.577660996368e+05 -2.560840963209e+05 -2.544575489883e+05 -2.528841931580e+05 -2.513618614076e+05 -2.498884778461e+05 -2.484620521847e+05 -2.470806729822e+05 -2.457424997114e+05 -2.444457541536e+05 -2.431887099751e+05 -2.419696802356e+05 -2.407869991639e+05 -2.396389908395e+05 -2.385238970537e+05 -2.374396788991e+05 -2.363834117867e+05 -2.353489992443e+05 -2.831385700875e+05 -2.805628748242e+05 -2.780827436495e+05 -2.756881871932e+05 -2.733759716123e+05 -2.711436247058e+05 -2.689885876093e+05 -2.669081599996e+05 -2.648995684153e+05 -2.629600316570e+05 -2.610868071505e+05 -2.592772202034e+05 -2.575286816791e+05 -2.558386972617e+05 -2.542048714105e+05 -2.526249078918e+05 -2.510966075914e+05 -2.496178650022e+05 -2.481866629417e+05 -2.468010670986e+05 -2.454592188858e+05 -2.441593282190e+05 -2.428996644903e+05 -2.416785466887e+05 -2.404943309370e+05 -2.393453936168e+05 -2.382301033883e+05 -2.371467610151e+05 -2.360934406050e+05 -2.350675147232e+05 -2.340639833680e+05 -2.750460784018e+05 -2.726892348183e+05 -2.704267163526e+05 -2.682427968814e+05 -2.661337207046e+05 -2.640971907572e+05 -2.621309514082e+05 -2.602326154790e+05 -2.583997095576e+05 -2.566297358275e+05 -2.549202190363e+05 -2.532687371708e+05 -2.516729399457e+05 -2.501305594326e+05 -2.486394144782e+05 -2.471974124702e+05 -2.458025474171e+05 -2.444528971841e+05 -2.431466187539e+05 -2.418819431633e+05 -2.406571689846e+05 -2.394706548977e+05 -2.383208115977e+05 -2.372060920896e+05 -2.361249803256e+05 -2.350759772833e+05 -2.340575836657e+05 -2.330682748809e+05 -2.321064593737e+05 -2.311703898739e+05 -2.302583130729e+05 -2.619046301579e+05 -2.599031530864e+05 -2.579940101723e+05 -2.561521431387e+05 -2.543729454260e+05 -2.526544038559e+05 -2.509947547980e+05 -2.493921196168e+05 -2.478445117302e+05 -2.463498935666e+05 -2.449062240002e+05 -2.435114912148e+05 -2.421637328484e+05 -2.408610483517e+05 -2.396016051104e+05 -2.383836407694e+05 -2.372054631581e+05 -2.360654477960e+05 -2.349620346439e+05 -2.338937231733e+05 -2.328590669309e+05 -2.318566664792e+05 -2.308851618751e+05 -2.299432237171e+05 -2.290295433293e+05 -2.281428242597e+05 -2.272817813818e+05 -2.264451735649e+05 -2.256319515416e+05 -2.248417963588e+05 -2.240782261914e+05 -2.442193143001e+05 -2.426960139039e+05 -2.412624165152e+05 -2.398808669339e+05 -2.385456071393e+05 -2.372550038898e+05 -2.360079551527e+05 -2.348032660067e+05 -2.336396051366e+05 -2.325155538888e+05 -2.314296554116e+05 -2.303804496664e+05 -2.293664964633e+05 -2.283863896530e+05 -2.274387653717e+05 -2.265223059378e+05 -2.256357413852e+05 -2.247778478962e+05 -2.239474461121e+05 -2.231433968097e+05 -2.223645966216e+05 -2.216099715886e+05 -2.208784704784e+05 -2.201690565695e+05 -2.194807002970e+05 -2.188123775279e+05 -2.181630913499e+05 -2.175319813974e+05 -2.169187273229e+05 -2.163249293721e+05 -2.157611982005e+05 -2.226698774499e+05 -2.217291111279e+05 -2.208749338501e+05 -2.200542691720e+05 -2.192599424228e+05 -2.184907802087e+05 -2.177464851334e+05 -2.170266947810e+05 -2.163308755342e+05 -2.156583628934e+05 -2.150084115453e+05 -2.143802337046e+05 -2.137730251892e+05 -2.131859823610e+05 -2.126183124174e+05 -2.120692396968e+05 -2.115380081267e+05 -2.110238826163e+05 -2.105261472693e+05 -2.100441033750e+05 -2.095770653362e+05 -2.091243559066e+05 -2.086852997395e+05 -2.082592168433e+05 -2.078454176559e+05 -2.074432094007e+05 -2.070519460596e+05 -2.066712302736e+05 -2.063016277420e+05 -2.059470719726e+05 -2.056268120529e+05 -1.980846260481e+05 -1.978082440602e+05 -1.976150624811e+05 -1.974342824759e+05 -1.972570896611e+05 -1.970828291595e+05 -1.969121190780e+05 -1.967455455024e+05 -1.965834843026e+05 -1.964261305843e+05 -1.962735504694e+05 -1.961257227947e+05 -1.959825691527e+05 -1.958439728673e+05 -1.957097927064e+05 -1.955798709762e+05 -1.954540386111e+05 -1.953321173118e+05 -1.952139202628e+05 -1.950992511104e+05 -1.949879010130e+05 -1.948796450665e+05 -1.947742367011e+05 -1.946714027579e+05 -1.945708412757e+05 -1.944722372682e+05 -1.943753440295e+05 -1.942802910014e+05 -1.941886504589e+05 -1.941070090278e+05 -1.940644641045e+05 -1.714086463632e+05 -1.718527725248e+05 -1.723767067945e+05 -1.728901978869e+05 -1.733826111039e+05 -1.738538436518e+05 -1.743055031663e+05 -1.747392025132e+05 -1.751563029624e+05 -1.755579311676e+05 -1.759450333735e+05 -1.763184197912e+05 -1.766787989268e+05 -1.770267993924e+05 -1.773629869276e+05 -1.776878743320e+05 -1.780019290272e+05 -1.783055770531e+05 -1.785992056053e+05 -1.788831631547e+05 -1.791577582102e+05 -1.794232564082e+05 -1.796798763394e+05 -1.799277858941e+05 -1.801671032130e+05 -1.803979226096e+05 -1.806204294112e+05 -1.808353214274e+05 -1.810452566082e+05 -1.812596835001e+05 -1.815183743290e+05 -1.436675823132e+05 -1.448603267289e+05 -1.461298453535e+05 -1.473652712913e+05 -1.485540055523e+05 -1.496965009745e+05 -1.507953871974e+05 -1.518533411256e+05 -1.528727459086e+05 -1.538556957203e+05 -1.548040504585e+05 -1.557194846130e+05 -1.566035241025e+05 -1.574575725580e+05 -1.582829304531e+05 -1.590808076624e+05 -1.598523334712e+05 -1.605985622087e+05 -1.613204778509e+05 -1.620189953073e+05 -1.626949608267e+05 -1.633491498916e+05 -1.639822647676e+05 -1.645949310427e+05 -1.651877034374e+05 -1.657611003529e+05 -1.663157543423e+05 -1.668529490552e+05 -1.673764596420e+05 -1.678986816741e+05 -1.684704691836e+05 -1.159284062553e+05 -1.178685392385e+05 -1.198832924823e+05 -1.218404968155e+05 -1.237254619018e+05 -1.255391642046e+05 -1.272852413251e+05 -1.289674279582e+05 -1.305891242552e+05 -1.321533893502e+05 -1.336629943904e+05 -1.351204767788e+05 -1.365281787358e+05 -1.378882784583e+05 -1.392028103940e+05 -1.404736813017e+05 -1.417026817460e+05 -1.428914942639e+05 -1.440416992662e+05 -1.451547776606e+05 -1.462321132243e+05 -1.472749905920e+05 -1.482845951769e+05 -1.492620094476e+05 -1.502082231327e+05 -1.511241765853e+05 -1.520109456968e+05 -1.528703911592e+05 -1.537073837307e+05 -1.545372123394e+05 -1.554217777232e+05 -8.925882017172e+04 -9.191531022020e+04 -9.464600063071e+04 -9.729694678824e+04 -9.985121297396e+04 -1.023102167272e+05 -1.046785404715e+05 -1.069609230709e+05 -1.091617345842e+05 -1.112849569656e+05 -1.133342330549e+05 -1.153129278677e+05 -1.172241667569e+05 -1.190708711529e+05 -1.208557802266e+05 -1.225814702670e+05 -1.242503671576e+05 -1.258647567737e+05 -1.274267925877e+05 -1.289384991843e+05 -1.304017765297e+05 -1.318183980135e+05 -1.331900121125e+05 -1.345181387929e+05 -1.358041835415e+05 -1.370494887473e+05 -1.382555501251e+05 -1.394247682936e+05 -1.405630243645e+05 -1.416882808298e+05 -1.428730012116e+05 -6.468726814792e+04 -6.799926903876e+04 -7.138844552952e+04 -7.467815411371e+04 -7.784890685801e+04 -8.090240290889e+04 -8.384404651105e+04 -8.667947452389e+04 -8.941393656086e+04 -9.205225365468e+04 -9.459886692414e+04 -9.705789780779e+04 -9.943319002385e+04 -1.017283473289e+05 -1.039467567915e+05 -1.060916098483e+05 -1.081659171092e+05 -1.101725195781e+05 -1.121140978851e+05 -1.139931764812e+05 -1.158121289434e+05 -1.175731772994e+05 -1.192783927876e+05 -1.209296960994e+05 -1.225288718145e+05 -1.240776303575e+05 -1.255778440605e+05 -1.270323766063e+05 -1.284479350038e+05 -1.298447109144e+05 -1.313048211503e+05 -4.316660401119e+04 -4.704251065410e+04 -5.100577203901e+04 -5.485403784493e+04 -5.856440907481e+04 -6.213852787388e+04 -6.558239606077e+04 -6.890237423156e+04 -7.210444886847e+04 -7.519415741318e+04 -7.817662867185e+04 -8.105663853205e+04 -8.383865451760e+04 -8.652687280666e+04 -8.912524414648e+04 -9.163749616142e+04 -9.406714821412e+04 -9.641752498327e+04 -9.869176461421e+04 -1.008928261620e+05 -1.030234932940e+05 -1.050863776280e+05 -1.070839207314e+05 -1.090183969826e+05 -1.108919295981e+05 -1.127065462913e+05 -1.144644067505e+05 -1.161686427980e+05 -1.178263912793e+05 -1.194593527065e+05 -1.211580812253e+05 -2.554842005064e+04 -2.986017039782e+04 -3.428558308625e+04 -3.858815684403e+04 -4.273921326328e+04 -4.673942466941e+04 -5.059484148126e+04 -5.431215842642e+04 -5.789781913008e+04 -6.135787346099e+04 -6.469798008697e+04 -6.792343794394e+04 -7.103921886224e+04 -7.404999922570e+04 -7.696018534380e+04 -7.977393688382e+04 -8.249518311560e+04 -8.512763928212e+04 -8.767481814508e+04 -9.014003911840e+04 -9.252643591635e+04 -9.483695858363e+04 -9.707437183683e+04 -9.924124197908e+04 -1.013399188899e+05 -1.033725380627e+05 -1.053411832366e+05 -1.072487281790e+05 -1.091021607360e+05 -1.109242473623e+05 -1.128124100079e+05 -1.257959544320e+04 -1.715690735380e+04 -2.189969148366e+04 -2.652259520201e+04 -3.098901230777e+04 -3.529793995022e+04 -3.945458711826e+04 -4.346492745076e+04 -4.733486638045e+04 -5.107016010900e+04 -5.467640486229e+04 -5.815901598746e+04 -6.152320525587e+04 -6.477396421895e+04 -6.791605541050e+04 -7.095400776953e+04 -7.389211763218e+04 -7.673444784330e+04 -7.948482624033e+04 -8.214683754188e+04 -8.472380637139e+04 -8.721877134045e+04 -8.963444325189e+04 -9.197315931688e+04 -9.423684628097e+04 -9.642708288355e+04 -9.854548526872e+04 -1.005950910366e+05 -1.025846034059e+05 -1.045406791049e+05 -1.065607928234e+05 -4.542585075080e+03 -9.550239828273e+03 -1.456145849206e+04 -1.938328270870e+04 -2.401313053895e+04 -2.846836019416e+04 -3.276412517600e+04 -3.691139097427e+04 -4.091818044721e+04 -4.479077209920e+04 -4.853446149840e+04 -5.215398199155e+04 -5.565372766471e+04 -5.903785773478e+04 -6.231034583357e+04 -6.547499199654e+04 -6.853542411327e+04 -7.149509533911e+04 -7.435728069589e+04 -7.712508351946e+04 -7.980145562087e+04 -8.238924960567e+04 -8.489131636459e+04 -8.731069625581e+04 -8.965097635623e+04 -9.191696174122e+04 -9.411594244442e+04 -9.626011860489e+04 -9.837130641096e+04 -1.004901798016e+05 -1.027051811011e+05 -5.784680129598e+03 -4.325433114857e+03 -8.658700888964e+03 -1.397250307023e+04 -1.932872431702e+04 -2.447427820556e+04 -2.935731073466e+04 -3.398493722691e+04 -3.837952295977e+04 -4.256509295074e+04 -4.656339896653e+04 -5.039314338263e+04 -5.407020477919e+04 -5.760813971147e+04 -6.101868195390e+04 -6.431219759991e+04 -6.749805947823e+04 -7.058494982039e+04 -7.358110359867e+04 -7.649449712513e+04 -7.933295487705e+04 -8.210414388713e+04 -8.481535842367e+04 -8.747284699458e+04 -9.008017606756e+04 -9.263432073295e+04 -9.511638331170e+04 -9.746896786839e+04 -9.953940377647e+04 -1.009330536217e+05 -1.003549310525e+05 
        </DataArray>
        <DataArray type="Float64" Name="STRAIN_XX" format="ascii">
          1.591040243202e-06 1.533256781996e-06 1.477773496851e-06 1.424393851026e-06 1.372996307250e-06 1.323477830627e-06 1.275746025630e-06 1.229716237347e-06 1.185310047994e-06 1.142454311020e-06 1.101080465670e-06 1.061124017151e-06 1.022524136712e-06 9.852233363852e-07 9.491672090839e-07 9.143042038082e-07 8.805854436302e-07 8.479645620132e-07 8.163975687436e-07 7.858427331446e-07 7.562604874067e-07 7.276133505477e-07 6.998658708284e-07 6.729845916978e-07 6.469380344039e-07 6.216966953560e-07 5.972330054179e-07 5.735211067245e-07 5.505359158591e-07 5.282497480522e-07 5.066143722935e-07 1.561526044578e-06 1.504542700990e-06 1.449853493404e-06 1.397242167948e-06 1.346585515077e-06 1.297781192221e-06 1.250737927607e-06 1.205372214751e-06 1.161606732110e-06 1.119369370301e-06 1.078592543772e-06 1.039212681209e-06 1.001169824805e-06 9.644073129171e-07 9.288715203805e-07 8.945116398591e-07 8.612794981222e-07 8.291293974736e-07 7.980179838981e-07 7.679041291883e-07 7.387488394362e-07 7.105151757849e-07 6.831682035200e-07 6.566749544553e-07 6.310044175440e-07 6.061275451587e-07 5.820172546513e-07 5.586483370572e-07 5.359969639973e-07 5.140387782618e-07 4.927377878962e-07 1.474117453417e-06 1.419503856141e-06 1.367166394102e-06 1.316830512915e-06 1.268368062746e-06 1.221678761350e-06 1.176674660601e-06 1.133275656210e-06 1.091407675931e-06 1.051001677717e-06 1.011992969463e-06 9.743207091192e-07 9.379275219093e-07 9.027591916405e-07 8.687644119719e-07 8.358945725306e-07 8.041035878084e-07 7.733477418023e-07 7.435855617871e-07 7.147777064718e-07 6.868868774277e-07 6.598777474688e-07 6.337169074730e-07 6.083728391946e-07 5.838159143805e-07 5.600184381242e-07 5.369547664343e-07 5.146016131382e-07 4.929388725925e-07 4.719520483420e-07 4.516414428058e-07 1.332172854916e-06 1.281408019619e-06 1.232889698746e-06 1.186248972320e-06 1.141349731799e-06 1.098095051716e-06 1.056402385938e-06 1.016197153486e-06 9.774105619660e-07 9.399785484611e-07 9.038411185610e-07 8.689418645629e-07 8.352276053268e-07 8.026480959007e-07 7.711557935869e-07 7.407056597315e-07 7.112549957179e-07 6.827633047994e-07 6.551921689721e-07 6.285051491495e-07 6.026677008642e-07 5.776471121783e-07 5.534124535017e-07 5.299345598652e-07 5.071860492463e-07 4.851414229310e-07 4.637773753527e-07 4.430737436145e-07 4.230164774411e-07 4.036071294128e-07 3.849050965221e-07 1.141145863124e-06 1.095561735211e-06 1.052183373644e-06 1.010515572430e-06 9.704116457938e-07 9.317792219102e-07 8.945430256418e-07 8.586359149039e-07 8.239962007724e-07 7.905665238322e-07 7.582932082716e-07 7.271258158856e-07 6.970168096097e-07 6.679212883100e-07 6.397967740913e-07 6.126030346273e-07 5.863019314606e-07 5.608572981732e-07 5.362348275865e-07 5.124019875684e-07 4.893279406214e-07 4.669834924713e-07 4.453410506650e-07 4.243746185830e-07 4.040598371242e-07 3.843741624159e-07 3.652974379093e-07 3.468137103524e-07 3.289170986004e-07 3.116308341549e-07 2.950941956497e-07 9.083755713841e-07 8.691063600643e-07 8.319915607765e-07 7.963834471253e-07 7.621227094280e-07 7.291225804195e-07 6.973166622916e-07 6.666468787464e-07 6.370601971071e-07 6.085074260461e-07 5.809425907755e-07 5.543225250620e-07 5.286065701493e-07 5.037563366183e-07 4.797355192321e-07 4.565097389244e-07 4.340464175499e-07 4.123146625487e-07 3.912851791742e-07 3.709301924699e-07 3.512233837005e-07 3.321398448793e-07 3.136560508791e-07 2.957498643985e-07 2.784006102210e-07 2.615893469377e-07 2.452997572405e-07 2.295210281273e-07 2.142572725116e-07 1.995582910625e-07 1.856613800952e-07 6.428042448506e-07 6.107435945803e-07 5.807757257000e-07 5.520813356660e-07 5.244871777224e-07 4.979129824774e-07 4.723025088859e-07 4.476080268022e-07 4.237863810869e-07 4.007976987547e-07 3.786047936567e-07 3.571727966772e-07 3.364688938659e-07 3.164621267823e-07 2.971232321859e-07 2.784245122013e-07 2.603397273427e-07 2.428440064156e-07 2.259137713775e-07 2.095266756397e-07 1.936615559375e-07 1.782983950660e-07 1.634183077543e-07 1.490035605852e-07 1.350376813165e-07 1.215058414565e-07 1.083961067928e-07 9.570354891569e-08 8.344375442243e-08 7.169710668419e-08 6.081394861328e-08 3.546331836806e-07 3.304010173589e-07 3.081894978192e-07 2.869973664957e-07 2.666370606291e-07 2.470355424162e-07 2.281476290283e-07 2.099368280114e-07 1.923707063791e-07 1.754195023369e-07 1.590555648444e-07 1.432530284518e-07 1.279875936043e-07 1.132363639081e-07 9.897771708949e-08 8.519120538466e-08 7.185746876298e-08 5.895816763236e-08 4.647592829942e-08 3.439429533890e-08 2.269769888215e-08 1.137142868590e-08 4.016347054636e-10 -1.022463763076e-08 -2.051929819099e-08 -3.049271163529e-08 -4.015204680616e-08 -4.949581563741e-08 -5.849585887625e-08 -6.703814376024e-08 -7.464754352175e-08 5.492967742113e-08 3.885039592733e-08 2.470764652129e-08 1.131826526598e-08 -1.518831171741e-09 -1.386884886172e-08 -2.576540212528e-08 -3.723327895618e-08 -4.829376075473e-08 -5.896608984242e-08 -6.926800189075e-08 -7.921599826392e-08 -8.882552428493e-08 -9.811109004071e-08 -1.070863720509e-07 -1.157642784025e-07 -1.241570149456e-07 -1.322761258277e-07 -1.401325339930e-07 -1.477365675126e-07 -1.550979801881e-07 -1.622259612936e-07 -1.691291230360e-07 -1.758154512073e-07 -1.822921082808e-07 -1.885648144454e-07 -1.946357654295e-07 -2.004967479075e-07 -2.061063176302e-07 -2.113146531779e-07 -2.155131545331e-07 -2.448005290974e-07 -2.527067216883e-07 -2.587765874292e-07 -2.643621869720e-07 -2.696757251382e-07 -2.747740527724e-07 -2.796790972763e-07 -2.844039117456e-07 -2.889586229516e-07 -2.933519503676e-07 -2.975917146714e-07 -3.016850516291e-07 -3.056385543056e-07 -3.094583453331e-07 -3.131501549662e-07 -3.167193509680e-07 -3.201709854998e-07 -3.235098067920e-07 -3.267402871341e-07 -3.298666263835e-07 -3.328927611775e-07 -3.358223592218e-07 -3.386587949153e-07 -3.414050832652e-07 -3.440636378361e-07 -3.466355275674e-07 -3.491179470433e-07 -3.514958634828e-07 -3.537141889171e-07 -3.555859373128e-07 -3.563623882366e-07 -5.330604714297e-07 -5.330704937303e-07 -5.313704297562e-07 -5.294504040801e-07 -5.275289610012e-07 -5.256540042444e-07 -5.238360241561e-07 -5.220767343344e-07 -5.203755187437e-07 -5.187309755845e-07 -5.171413923371e-07 -5.156049005457e-07 -5.141195779458e-07 -5.126834857696e-07 -5.112947113495e-07 -5.099513722781e-07 -5.086516399906e-07 -5.073937293555e-07 -5.061759069937e-07 -5.049964801803e-07 -5.038537899068e-07 -5.027461953314e-07 -5.016720335728e-07 -5.006295398054e-07 -4.996165568546e-07 -4.986296603217e-07 -4.976611806665e-07 -4.966893560971e-07 -4.956453828550e-07 -4.943040633333e-07 -4.917692879727e-07 -7.988165035696e-07 -7.914754034092e-07 -7.826008029188e-07 -7.737604357328e-07 -7.651701511936e-07 -7.568680233284e-07 -7.488536974005e-07 -7.411183411377e-07 -7.336513798504e-07 -7.264420604094e-07 -7.194798716273e-07 -7.127546504397e-07 -7.062566282714e-07 -6.999764391604e-07 -6.939051252468e-07 -6.880341239870e-07 -6.823552608436e-07 -6.768607283647e-07 -6.715430721314e-07 -6.663951698186e-07 -6.614102093173e-07 -6.565816597016e-07 -6.519032195020e-07 -6.473687028166e-07 -6.429717031112e-07 -6.387045773289e-07 -6.345550726317e-07 -6.304950203766e-07 -6.264420465369e-07 -6.221307481865e-07 -6.165027801038e-07 -1.031960960679e-06 -1.018009274569e-06 -1.002817616313e-06 -9.879065179353e-07 -9.734692118537e-07 -9.595321322312e-07 -9.460854165237e-07 -9.331111114831e-07 -9.205898396554e-07 -9.085025231298e-07 -8.968308263593e-07 -8.855572561217e-07 -8.746651390261e-07 -8.641385999974e-07 -8.539625115243e-07 -8.441224703427e-07 -8.346047518574e-07 -8.253962878209e-07 -8.164846243345e-07 -8.078578905012e-07 -7.995047521781e-07 -7.914143537989e-07 -7.835762372871e-07 -7.759801951755e-07 -7.686159451999e-07 -7.614721101949e-07 -7.545326674376e-07 -7.477641261847e-07 -7.410702648141e-07 -7.341369362552e-07 -7.257028566143e-07 -1.223861511419e-06 -1.204016302282e-06 -1.183556552323e-06 -1.163659393588e-06 -1.144429034360e-06 -1.125868390232e-06 -1.107960384934e-06 -1.090682148727e-06 -1.074008730100e-06 -1.057914826299e-06 -1.042375700182e-06 -1.027367624274e-06 -1.012868031278e-06 -9.988555264435e-07 -9.853098252405e-07 -9.722116783871e-07 -9.595427800157e-07 -9.472856891876e-07 -9.354237439223e-07 -9.239409888224e-07 -9.128221134588e-07 -9.020524197768e-07 -8.916178482458e-07 -8.815050571061e-07 -8.717014481500e-07 -8.621944145487e-07 -8.529671001439e-07 -8.439811750369e-07 -8.351159344965e-07 -8.259675139187e-07 -8.149696667143e-07 -1.368596072355e-06 -1.342689155038e-06 -1.317804024318e-06 -1.294118033381e-06 -1.271376589178e-06 -1.249447910202e-06 -1.228271962478e-06 -1.207817112450e-06 -1.188060036970e-06 -1.168978420282e-06 -1.150549037482e-06 -1.132747743268e-06 -1.115549968671e-06 -1.098931233474e-06 -1.082867549174e-06 -1.067335700007e-06 -1.052313435228e-06 -1.037779613066e-06 -1.023714333137e-06 -1.010099081653e-06 -9.969169153900e-07 -9.841526755545e-07 -9.717931659000e-07 -9.598270471445e-07 -9.482437396061e-07 -9.370293754817e-07 -9.261545386476e-07 -9.155397400590e-07 -9.049608566093e-07 -8.937924376447e-07 -8.800616362020e-07 -1.464398631779e-06 -1.432925794245e-06 -1.402938165373e-06 -1.375173657019e-06 -1.349201761904e-06 -1.324636419068e-06 -1.301216156568e-06 -1.278772192410e-06 -1.257193743879e-06 -1.236404842666e-06 -1.216350387798e-06 -1.196987972063e-06 -1.178283089083e-06 -1.160206293242e-06 -1.142731483971e-06 -1.125834835740e-06 -1.109494084256e-06 -1.093687984694e-06 -1.078395813168e-06 -1.063596790663e-06 -1.049269294700e-06 -1.035389663360e-06 -1.021930272063e-06 -1.008856324896e-06 -9.961203320370e-07 -9.836523509790e-07 -9.713422691707e-07 -9.590068429102e-07 -9.463269498249e-07 -9.327257880899e-07 -9.170296278470e-07 -1.437451795501e-06 -1.440108547329e-06 -1.423517720280e-06 -1.401315030915e-06 -1.377445949880e-06 -1.353361611300e-06 -1.329639723040e-06 -1.306519684511e-06 -1.284097373569e-06 -1.262403182312e-06 -1.241436130941e-06 -1.221179899810e-06 -1.201610821105e-06 -1.182702031041e-06 -1.164425711154e-06 -1.146754332979e-06 -1.129661407381e-06 -1.113122017918e-06 -1.097113327003e-06 -1.081615234842e-06 -1.066611398731e-06 -1.052090965726e-06 -1.038051653820e-06 -1.024505470855e-06 -1.011489806466e-06 -9.990900329742e-07 -9.874880374992e-07 -9.770719684085e-07 -9.686966922797e-07 -9.643288693513e-07 -9.691944302213e-07 
        </DataArray>
        <DataArray type="Float64" Name="STRAIN_XY" format="ascii">
          5.290250617650e-09 3.552982446215e-09 2.569644145831e-09 1.923584605177e-09 1.481982994981e-09 1.174640551058e-09 9.581469610134e-10 8.038653099433e-10 6.924186264677e-10 6.105371317097e-10 5.490499108324e-10 5.015521141580e-10 4.635035608791e-10 4.316045595126e-10 4.033634855097e-10 3.767835799848e-10 3.501284275737e-10 3.217368222701e-10 2.898585036520e-10 2.525029792790e-10 2.072735354748e-10 1.511886428741e-10 8.046427347561e-11 -9.745018233293e-12 -1.256521957540e-10 -2.751608482928e-10 -4.680715717736e-10 -7.156479811326e-10 -1.027794223829e-09 -1.402017532400e-09 -1.770057539151e-09 5.997355562685e-07 5.831511505522e-07 5.669696337935e-07 5.513555104721e-07 5.363078627239e-07 5.218051469212e-07 5.078229823535e-07 4.943377049334e-07 4.813269641736e-07 4.687697193194e-07 4.566461427943e-07 4.449375118240e-07 4.336261212453e-07 4.226952048348e-07 4.121288705630e-07 4.019120437785e-07 3.920304162209e-07 3.824704030168e-07 3.732191030867e-07 3.642642661583e-07 3.555942628736e-07 3.471980588112e-07 3.390651915217e-07 3.311857485576e-07 3.235503173922e-07 3.161498605309e-07 3.089752854931e-07 3.020160168495e-07 2.952552048968e-07 2.886539382602e-07 2.820772472126e-07 1.176449532923e-06 1.143897137353e-06 1.112152371470e-06 1.081523363666e-06 1.052006133623e-06 1.023557953801e-06 9.961308991674e-07 9.696785313775e-07 9.441570018351e-07 9.195250387975e-07 8.957437469487e-07 8.727764024507e-07 8.505882748179e-07 8.291464748667e-07 8.084198306851e-07 7.883787721957e-07 7.689952321365e-07 7.502425623323e-07 7.320954577609e-07 7.145298887285e-07 6.975230417069e-07 6.810532726065e-07 6.651000621385e-07 6.496439635450e-07 6.346665192258e-07 6.201500130205e-07 6.060766554590e-07 5.924258406086e-07 5.791649896054e-07 5.662193279782e-07 5.533302489561e-07 1.708006052186e-06 1.660693969430e-06 1.614598585807e-06 1.570130106447e-06 1.527277196709e-06 1.485976636754e-06 1.446158592916e-06 1.407755592337e-06 1.370703965066e-06 1.334943793202e-06 1.300418608687e-06 1.267075096177e-06 1.234862834503e-06 1.203734079448e-06 1.173643573367e-06 1.144548386901e-06 1.116407774118e-06 1.089183048299e-06 1.062837470701e-06 1.037336155615e-06 1.012645985125e-06 9.887355365193e-07 9.655750201749e-07 9.431362079884e-07 9.213923158399e-07 9.003176537976e-07 8.798865050972e-07 8.600693170669e-07 8.408199980950e-07 8.220339494160e-07 8.033514017787e-07 2.174006702937e-06 2.113686940633e-06 2.055001046666e-06 1.998399454619e-06 1.943857020817e-06 1.891290988782e-06 1.840611984059e-06 1.791734022465e-06 1.744576044964e-06 1.699061787459e-06 1.655119379110e-06 1.612680962892e-06 1.571682364162e-06 1.532062816189e-06 1.493764717722e-06 1.456733429495e-06 1.420917090969e-06 1.386266463819e-06 1.352734789004e-06 1.320277665138e-06 1.288852940920e-06 1.258420624938e-06 1.228942803638e-06 1.200383557137e-06 1.172708812974e-06 1.145885939527e-06 1.119882414077e-06 1.094661323675e-06 1.070166322953e-06 1.046271927632e-06 1.022550480407e-06 2.556575795829e-06 2.485473795216e-06 2.416436868731e-06 2.349873802179e-06 2.285736981757e-06 2.223925236561e-06 2.164332639760e-06 2.106857904584e-06 2.051405680095e-06 1.997886280028e-06 1.946215193178e-06 1.896312627793e-06 1.848103123700e-06 1.801515225029e-06 1.756481200504e-06 1.712936800330e-06 1.670821044700e-06 1.630076032587e-06 1.590646783092e-06 1.552481085352e-06 1.515529376042e-06 1.479744631008e-06 1.445082273395e-06 1.411500077173e-06 1.378958008294e-06 1.347417804870e-06 1.316841576800e-06 1.287187097291e-06 1.258392018811e-06 1.230321674275e-06 1.202524202780e-06 2.841049244071e-06 2.761773762531e-06 2.685017877289e-06 2.611046676462e-06 2.539779069689e-06 2.471096619050e-06 2.404880327069e-06 2.341017369874e-06 2.279401738333e-06 2.219933767330e-06 2.162519552037e-06 2.107070432206e-06 2.053502560062e-06 2.001736539190e-06 1.951697110082e-06 1.903312882058e-06 1.856516095923e-06 1.811242418545e-06 1.767430756980e-06 1.725023098145e-06 1.683964371889e-06 1.644202331182e-06 1.605687451077e-06 1.568372828975e-06 1.532214034310e-06 1.497168718644e-06 1.463195333583e-06 1.430248797138e-06 1.398265943267e-06 1.367117281570e-06 1.336380556479e-06 3.016541159053e-06 2.931976879736e-06 2.850424455299e-06 2.771881830207e-06 2.696220804407e-06 2.623306655430e-06 2.553011118638e-06 2.485214001591e-06 2.419802676879e-06 2.356671323194e-06 2.295720247817e-06 2.236855330332e-06 2.179987558761e-06 2.125032646322e-06 2.071910697027e-06 2.020545923567e-06 1.970866393428e-06 1.922803811052e-06 1.876293320736e-06 1.831273338765e-06 1.787685404616e-06 1.745474058254e-06 1.704586734604e-06 1.664973668020e-06 1.626587769780e-06 1.589384331832e-06 1.553320072111e-06 1.518349882432e-06 1.484415840901e-06 1.451410644731e-06 1.419005670790e-06 3.076367360244e-06 2.989552704411e-06 2.906302429309e-06 2.826199075237e-06 2.749050490254e-06 2.674706217703e-06 2.603032658047e-06 2.533906652058e-06 2.467213237313e-06 2.402844491460e-06 2.340698764576e-06 2.280680091546e-06 2.222697718128e-06 2.166665706086e-06 2.112502594194e-06 2.060131111993e-06 2.009477917396e-06 1.960473378607e-06 1.913051370657e-06 1.867149107052e-06 1.822706986126e-06 1.779668469090e-06 1.737979976475e-06 1.697590808060e-06 1.658453066967e-06 1.620521534590e-06 1.583753284651e-06 1.548106338757e-06 1.513534990165e-06 1.479973962133e-06 1.447263503023e-06 3.018311282494e-06 2.932303014966e-06 2.850507854063e-06 2.771912056040e-06 2.696238393395e-06 2.623320392429e-06 2.553022946400e-06 2.485224376439e-06 2.419811738277e-06 2.356679142902e-06 2.295726884663e-06 2.236860842233e-06 2.179992002747e-06 2.125036081478e-06 2.071913182835e-06 2.020547522577e-06 1.970867168849e-06 1.922803831602e-06 1.876292658478e-06 1.831272075908e-06 1.787683634253e-06 1.745471894894e-06 1.704584332345e-06 1.664971280121e-06 1.626585931602e-06 1.589384463026e-06 1.553326513894e-06 1.518376716873e-06 1.484509601221e-06 1.451725191512e-06 1.420121857519e-06 2.844725774688e-06 2.762449352601e-06 2.685190548365e-06 2.611108968808e-06 2.539815026807e-06 2.471124557285e-06 2.404904324804e-06 2.341038401394e-06 2.279420108125e-06 2.219949640751e-06 2.162533062465e-06 2.107081706933e-06 2.053511721504e-06 2.001743710739e-06 1.951702413311e-06 1.903316443744e-06 1.856518045579e-06 1.811242896528e-06 1.767429912321e-06 1.725021101121e-06 1.683961420773e-06 1.644198671754e-06 1.605683418392e-06 1.568368964367e-06 1.532211463397e-06 1.497170392004e-06 1.463210258819e-06 1.430306210178e-06 1.398462485489e-06 1.367772513849e-06 1.338702582713e-06 2.562475956405e-06 2.486553348185e-06 2.416714265145e-06 2.349973942163e-06 2.285793983181e-06 2.223968953437e-06 2.164369980638e-06 2.106890580112e-06 2.051434217552e-06 1.997910964082e-06 1.946236258753e-06 1.896330301097e-06 1.848117620101e-06 1.801526752711e-06 1.756489959259e-06 1.712942991205e-06 1.670824872246e-06 1.630077720864e-06 1.590646579584e-06 1.552479279177e-06 1.515526313623e-06 1.479740742696e-06 1.445078130926e-06 1.411496566023e-06 1.378956929920e-06 1.347423897070e-06 1.316869360021e-06 1.287283639511e-06 1.258712379178e-06 1.231377981222e-06 1.206260295153e-06 2.182751470290e-06 2.115275235023e-06 2.055420033363e-06 1.998556675580e-06 1.943945481254e-06 1.891356023716e-06 1.840665957624e-06 1.791780791622e-06 1.744616924405e-06 1.699097292881e-06 1.655149820022e-06 1.612706617852e-06 1.571703541134e-06 1.532079836388e-06 1.493777925313e-06 1.456743176290e-06 1.420923755424e-06 1.386270446118e-06 1.352736529741e-06 1.320277641000e-06 1.288851672264e-06 1.258418697727e-06 1.228940964664e-06 1.200383059651e-06 1.172712467089e-06 1.145901367054e-06 1.119932201636e-06 1.094815987135e-06 1.070653844470e-06 1.047845407837e-06 1.028106879563e-06 1.720850981818e-06 1.662976374164e-06 1.615240235350e-06 1.570416338721e-06 1.527452707043e-06 1.486097289683e-06 1.446246065523e-06 1.407822386461e-06 1.370757626810e-06 1.334988544597e-06 1.300456639065e-06 1.267107505498e-06 1.234890242356e-06 1.203756934615e-06 1.173662298206e-06 1.144563400093e-06 1.116419484640e-06 1.089191815288e-06 1.062843604250e-06 1.037339967366e-06 1.012647949401e-06 9.887366306141e-07 9.655773071521e-07 9.431438238120e-07 9.214131657662e-07 9.003672761363e-07 8.799998664038e-07 8.603431907404e-07 8.415679090088e-07 8.243372114195e-07 8.115383160903e-07 1.196444007127e-06 1.147094204802e-06 1.112958908649e-06 1.082033982598e-06 1.052476671507e-06 1.023958361833e-06 9.964330012459e-07 9.698834639959e-07 9.442819265479e-07 9.195911913791e-07 8.957702842422e-07 8.727781930858e-07 8.505757431001e-07 8.291263419273e-07 8.083961538542e-07 7.883540378269e-07 7.689714115277e-07 7.502221010107e-07 7.320821830004e-07 7.145297989844e-07 6.975448508614e-07 6.811084633474e-07 6.652020266136e-07 6.498056892571e-07 6.348966385616e-07 6.204494509907e-07 6.064477818427e-07 5.929391776940e-07 5.802356008959e-07 5.695781157468e-07 5.660914585152e-07 6.478359214483e-07 5.885686817487e-07 5.631529496604e-07 5.463150472845e-07 5.321265064526e-07 5.188271514690e-07 5.059100566844e-07 4.932544114302e-07 4.808545254564e-07 4.687328064035e-07 4.569123816545e-07 4.454095791317e-07 4.342329958913e-07 4.233844538303e-07 4.128603013326e-07 4.026525014431e-07 3.927493977434e-07 3.831361633868e-07 3.737949810859e-07 3.647050481590e-07 3.558425974413e-07 3.471812859864e-07 3.386937438097e-07 3.303561351273e-07 3.221601713058e-07 3.141435163757e-07 3.064663542274e-07 2.996062390817e-07 2.948633732385e-07 2.956974377952e-07 3.126825662023e-07 -4.462131898645e-08 1.654445701919e-08 2.685514725352e-08 2.538520223896e-08 2.125240883529e-08 1.707559439339e-08 1.353139400420e-08 1.070606099524e-08 8.517311845219e-09 6.849487348979e-09 5.595600811422e-09 4.668184940505e-09 3.999834169413e-09 3.540711856879e-09 3.255591464271e-09 3.121238809072e-09 3.124373480665e-09 3.260143316829e-09 3.531031594055e-09 3.945990575326e-09 4.519561437202e-09 5.270421283934e-09 6.218414292791e-09 7.377910900267e-09 8.742537788454e-09 1.024972547316e-08 1.169624328267e-08 1.253165275879e-08 1.133773165500e-08 4.478904832655e-09 -1.871009913784e-08 
        </DataArray>
        <DataArray type="Float64" Name="STRAIN_YY" format="ascii">
          -1.479285216179e-06 -1.450620280731e-06 -1.423020788141e-06 -1.396435705799e-06 -1.370818364852e-06 -1.346124824645e-06 -1.322313615024e-06 -1.299345541539e-06 -1.277183521253e-06 -1.255792438566e-06 -1.235139016098e-06 -1.215191697700e-06 -1.195920541554e-06 -1.177297121892e-06 -1.159294438213e-06 -1.141886831102e-06 -1.125049903951e-06 -1.108760449972e-06 -1.092996384006e-06 -1.077736678665e-06 -1.062961304416e-06 -1.048651173232e-06 -1.034788085453e-06 -1.021354679541e-06 -1.008334384406e-06 -9.957113740652e-07 -9.834705245885e-07 -9.715973739920e-07 -9.600780881236e-07 -9.488994433224e-07 -9.380486438902e-07 -1.479285238082e-06 -1.450620076437e-06 -1.423020539865e-06 -1.396435445242e-06 -1.370818098988e-06 -1.346124555179e-06 -1.322313342520e-06 -1.299345266300e-06 -1.277183243522e-06 -1.255792158561e-06 -1.235138734019e-06 -1.215191413732e-06 -1.195920255864e-06 -1.177296834635e-06 -1.159294149530e-06 -1.141886541118e-06 -1.125049612775e-06 -1.108760157704e-06 -1.092996090733e-06 -1.077736384460e-06 -1.062961009341e-06 -1.048650877336e-06 -1.034787788772e-06 -1.021354382084e-06 -1.008334086131e-06 -9.957110747806e-07 -9.834702236091e-07 -9.715970690150e-07 -9.600777714816e-07 -9.488990896207e-07 -9.380481609578e-07 -1.479285327345e-06 -1.450619470281e-06 -1.423019799116e-06 -1.396434667441e-06 -1.370817305592e-06 -1.346123751414e-06 -1.322312530092e-06 -1.299344446134e-06 -1.277182416339e-06 -1.255791325009e-06 -1.235137894693e-06 -1.215190569172e-06 -1.195919406575e-06 -1.177295981072e-06 -1.159293292096e-06 -1.141885680183e-06 -1.125048748665e-06 -1.108759290707e-06 -1.092995221094e-06 -1.077735512394e-06 -1.062960135025e-06 -1.048650000909e-06 -1.034786910326e-06 -1.021353501645e-06 -1.008333203561e-06 -9.957101894746e-07 -9.834693334573e-07 -9.715961669309e-07 -9.600768338633e-07 -9.488980383060e-07 -9.380467122450e-07 -1.479285560132e-06 -1.450618485441e-06 -1.423018580896e-06 -1.396433386899e-06 -1.370816000263e-06 -1.346122430369e-06 -1.322311196247e-06 -1.299343101024e-06 -1.277181061148e-06 -1.255789960788e-06 -1.235136522408e-06 -1.215189189704e-06 -1.195918020729e-06 -1.177294589574e-06 -1.159291895603e-06 -1.141884279272e-06 -1.125047343850e-06 -1.108757882438e-06 -1.092993809754e-06 -1.077734098305e-06 -1.062958718455e-06 -1.048648582060e-06 -1.034785489322e-06 -1.021352078492e-06 -1.008331777986e-06 -9.957087603821e-07 -9.834678971173e-07 -9.715947108900e-07 -9.600753166853e-07 -9.488963228011e-07 -9.380443003706e-07 -1.479286075835e-06 -1.450617163128e-06 -1.423016911521e-06 -1.396431629199e-06 -1.370814210800e-06 -1.346120622631e-06 -1.322309374417e-06 -1.299341267209e-06 -1.277179216936e-06 -1.255788107570e-06 -1.235134661454e-06 -1.215187322181e-06 -1.195916147684e-06 -1.177292711950e-06 -1.159290014242e-06 -1.141882394919e-06 -1.125045457153e-06 -1.108755993949e-06 -1.092991919947e-06 -1.077732207570e-06 -1.062956827092e-06 -1.048646690284e-06 -1.034783597248e-06 -1.021350186049e-06 -1.008329884690e-06 -9.957068645107e-07 -9.834659929699e-07 -9.715927795618e-07 -9.600732953877e-07 -9.488940036924e-07 -9.380409286596e-07 -1.479287097318e-06 -1.450615564621e-06 -1.423014828069e-06 -1.396429430466e-06 -1.370811977135e-06 -1.346118372817e-06 -1.322307113958e-06 -1.299338998673e-06 -1.277176942175e-06 -1.255785828189e-06 -1.235132378905e-06 -1.215185037793e-06 -1.195913862643e-06 -1.177290427312e-06 -1.159287730941e-06 -1.141880113769e-06 -1.125043178849e-06 -1.108753719073e-06 -1.092989648979e-06 -1.077729940880e-06 -1.062954564952e-06 -1.048644432854e-06 -1.034781344548e-06 -1.021347937854e-06 -1.008327640192e-06 -9.957046211509e-07 -9.834637425017e-07 -9.715904948538e-07 -9.600708865172e-07 -9.488911729983e-07 -9.380365945475e-07 -1.479288964656e-06 -1.450613770781e-06 -1.423012372627e-06 -1.396426831156e-06 -1.370809345646e-06 -1.346115734579e-06 -1.322304475848e-06 -1.299336363508e-06 -1.277174311838e-06 -1.255783204287e-06 -1.235129762873e-06 -1.215182430922e-06 -1.195911266083e-06 -1.177287842085e-06 -1.159285157922e-06 -1.141877553694e-06 -1.125040632332e-06 -1.108751186599e-06 -1.092987130913e-06 -1.077727437467e-06 -1.062952076319e-06 -1.048641958990e-06 -1.034778885272e-06 -1.021345492664e-06 -1.008325207781e-06 -9.957021977745e-07 -9.834613164599e-07 -9.715880279676e-07 -9.600682524556e-07 -9.488879535359e-07 -9.380312687396e-07 -1.479292190954e-06 -1.450611874000e-06 -1.423009573973e-06 -1.396423856452e-06 -1.370806350157e-06 -1.346112752566e-06 -1.322301515691e-06 -1.299333428033e-06 -1.277171402636e-06 -1.255780322628e-06 -1.235126909890e-06 -1.215179607623e-06 -1.195908473343e-06 -1.177285080642e-06 -1.159282428382e-06 -1.141874856525e-06 -1.125037967861e-06 -1.108748555027e-06 -1.092984532312e-06 -1.077724871781e-06 -1.062949543349e-06 -1.048639458385e-06 -1.034776416462e-06 -1.021343054666e-06 -1.008322798497e-06 -9.956998117127e-07 -9.834589369805e-07 -9.715856012662e-07 -9.600656008130e-07 -9.488844884239e-07 -9.380248472426e-07 -1.479297562516e-06 -1.450609955994e-06 -1.423006405864e-06 -1.396420472103e-06 -1.370802968897e-06 -1.346109421403e-06 -1.322298244936e-06 -1.299330220221e-06 -1.277168258678e-06 -1.255777243089e-06 -1.235123895232e-06 -1.215176658209e-06 -1.195905589453e-06 -1.177282262427e-06 -1.159279675859e-06 -1.141872169590e-06 -1.125035346276e-06 -1.108745998417e-06 -1.092982040161e-06 -1.077722443431e-06 -1.062947177989e-06 -1.048637155027e-06 -1.034774173824e-06 -1.021340870901e-06 -1.008320670205e-06 -9.956977306847e-07 -9.834568791356e-07 -9.715834895296e-07 -9.600631811137e-07 -9.488809189656e-07 -9.380170574959e-07 -1.479306337443e-06 -1.450608040187e-06 -1.423002701245e-06 -1.396416494877e-06 -1.370799038462e-06 -1.346105604551e-06 -1.322294554924e-06 -1.299326659074e-06 -1.277164826190e-06 -1.255773938646e-06 -1.235120718150e-06 -1.215173607731e-06 -1.195902664782e-06 -1.177279462659e-06 -1.159276999971e-06 -1.141869616428e-06 -1.125032914546e-06 -1.108743686678e-06 -1.092979846817e-06 -1.077720366726e-06 -1.062945215965e-06 -1.048635305495e-06 -1.034772434195e-06 -1.021339237770e-06 -1.008319137920e-06 -9.956962865748e-07 -9.834554872929e-07 -9.715820362666e-07 -9.600612924588e-07 -9.488773549560e-07 -9.380072835626e-07 -1.479320675053e-06 -1.450605990151e-06 -1.422997971248e-06 -1.396411405521e-06 -1.370794076606e-06 -1.346100869956e-06 -1.322290065552e-06 -1.299322416115e-06 -1.277160827666e-06 -1.255770182064e-06 -1.235117200960e-06 -1.215170327341e-06 -1.195899618516e-06 -1.177276647736e-06 -1.159274413509e-06 -1.141867255393e-06 -1.125030775741e-06 -1.108741766734e-06 -1.092978142162e-06 -1.077718873561e-06 -1.062943930195e-06 -1.048634222649e-06 -1.034771549216e-06 -1.021338544360e-06 -1.008318626427e-06 -9.956959366822e-07 -9.834552431523e-07 -9.715817227077e-07 -9.600603347175e-07 -9.488738460901e-07 -9.379942216969e-07 -1.479344634295e-06 -1.450603262525e-06 -1.422990977216e-06 -1.396403904186e-06 -1.370786861641e-06 -1.346094103764e-06 -1.322283773868e-06 -1.299316596846e-06 -1.277155474572e-06 -1.255765289098e-06 -1.235112762465e-06 -1.215166337744e-06 -1.195896072083e-06 -1.177273538519e-06 -1.159271735318e-06 -1.141865001802e-06 -1.125028940078e-06 -1.108740342029e-06 -1.092977121054e-06 -1.077718248253e-06 -1.062943692392e-06 -1.048634363468e-06 -1.034772059023e-06 -1.021339411861e-06 -1.008319835126e-06 -9.956974524517e-07 -9.834569729415e-07 -9.715833779636e-07 -9.600609771545e-07 -9.488703659196e-07 -9.379751130116e-07 -1.479386570136e-06 -1.450598141692e-06 -1.422978566087e-06 -1.396390669780e-06 -1.370774213398e-06 -1.346082370239e-06 -1.322273018302e-06 -1.299306811823e-06 -1.277146637861e-06 -1.255757380070e-06 -1.235105765147e-06 -1.215160239727e-06 -1.195890862582e-06 -1.177269206978e-06 -1.159268270525e-06 -1.141862391474e-06 -1.125027170737e-06 -1.108739399140e-06 -1.092976989302e-06 -1.077718912027e-06 -1.062945136412e-06 -1.048636573158e-06 -1.034775019938e-06 -1.021343106310e-06 -1.008324232278e-06 -9.957024818792e-07 -9.834624509247e-07 -9.715887781693e-07 -9.600646564980e-07 -9.488668740918e-07 -9.379438426797e-07 -1.479463217825e-06 -1.450583906703e-06 -1.422952058755e-06 -1.396362761974e-06 -1.370747085447e-06 -1.346056817790e-06 -1.322249470544e-06 -1.299285472241e-06 -1.277127559717e-06 -1.255740535581e-06 -1.235091094476e-06 -1.215147678038e-06 -1.195880351224e-06 -1.177260696213e-06 -1.159261718710e-06 -1.141857763681e-06 -1.125024437933e-06 -1.108738538168e-06 -1.092977983053e-06 -1.077721748366e-06 -1.062949804134e-06 -1.048643052876e-06 -1.034783268248e-06 -1.021353033089e-06 -1.008335673603e-06 -9.957151691658e-07 -9.834759432040e-07 -9.716021578276e-07 -9.600751461098e-07 -9.488643163626e-07 -9.378864834237e-07 -1.479570946015e-06 -1.450508207031e-06 -1.422877970661e-06 -1.396298270187e-06 -1.370684656775e-06 -1.345992989368e-06 -1.322184704710e-06 -1.299221874449e-06 -1.277067420582e-06 -1.255685707491e-06 -1.235042841327e-06 -1.215106734490e-06 -1.195847047783e-06 -1.177235083026e-06 -1.159243661777e-06 -1.141847006748e-06 -1.125020631365e-06 -1.108741239309e-06 -1.092986634591e-06 -1.077735643555e-06 -1.062968052022e-06 -1.048664564508e-06 -1.034806797001e-06 -1.021377318060e-06 -1.008359744737e-06 -9.957388433029e-07 -9.835003627404e-07 -9.716295753006e-07 -9.601051055487e-07 -9.488772797587e-07 -9.377774160819e-07 -1.483832675356e-06 -1.450526297480e-06 -1.421884353604e-06 -1.395178334185e-06 -1.369687364496e-06 -1.345163062808e-06 -1.321504571626e-06 -1.298659516460e-06 -1.276592045427e-06 -1.255272099639e-06 -1.234671788375e-06 -1.214764239179e-06 -1.195523314945e-06 -1.176923622875e-06 -1.158940604118e-06 -1.141550633393e-06 -1.124731104205e-06 -1.108460495159e-06 -1.092718416691e-06 -1.077485634026e-06 -1.062744049668e-06 -1.048476603017e-06 -1.034666991068e-06 -1.021298990417e-06 -1.008354878621e-06 -9.958117718080e-07 -9.836330059318e-07 -9.717473623955e-07 -9.599975686047e-07 -9.480089661726e-07 -9.347468904152e-07 -1.434291453996e-06 -1.439091621461e-06 -1.423147763357e-06 -1.401183176346e-06 -1.377409070439e-06 -1.353364646309e-06 -1.329659685049e-06 -1.306546377002e-06 -1.284126125028e-06 -1.262431865561e-06 -1.241463845074e-06 -1.221206350763e-06 -1.201636016050e-06 -1.182726122238e-06 -1.164448913590e-06 -1.146776879084e-06 -1.129683518333e-06 -1.113143879816e-06 -1.097135061809e-06 -1.081636855032e-06 -1.066632728774e-06 -1.052111498491e-06 -1.038070279932e-06 -1.024519949764e-06 -1.011495687908e-06 -9.990783555047e-07 -9.874401727176e-07 -9.769475178783e-07 -9.684038181213e-07 -9.636487717350e-07 -9.675364455307e-07 
        </DataArray>
        <DataArray type="Float64" Name="DISPLACEMENT" NumberOfComponents="3" format="ascii">
          -2.586340890912e-07 0.000000000000e+00 0.000000000000e+00 -2.560376259729e-07 0.000000000000e+00 0.000000000000e+00 -2.535361768742e-07 0.000000000000e+00 0.000000000000e+00 -2.511257273780e-07 0.000000000000e+00 0.000000000000e+00 -2.488026940399e-07 0.000000000000e+00 0.000000000000e+00 -2.465637544367e-07 0.000000000000e+00 0.000000000000e+00 -2.444057876624e-07 0.000000000000e+00 0.000000000000e+00 -2.423258440812e-07 0.000000000000e+00 0.000000000000e+00 -2.403211254691e-07 0.000000000000e+00 0.000000000000e+00 -2.383889702755e-07 0.000000000000e+00 0.000000000000e+00 -2.365268420009e-07 0.000000000000e+00 0.000000000000e+00 -2.347323196777e-07 0.000000000000e+00 0.000000000000e+00 -2.330030898519e-07 0.000000000000e+00 0.000000000000e+00 -2.313369396417e-07 0.000000000000e+00 0.000000000000e+00 -2.297317506177e-07 0.000000000000e+00 0.000000000000e+00 -2.281854932933e-07 0.000000000000e+00 0.000000000000e+00 -2.266962220852e-07 0.000000000000e+00 0.000000000000e+00 -2.252620706512e-07 0.000000000000e+00 0.000000000000e+00 -2.238812475029e-07 0.000000000000e+00 0.000000000000e+00 -2.225520318411e-07 0.000000000000e+00 0.000000000000e+00 -2.212727695355e-07 0.000000000000e+00 0.000000000000e+00 -2.200418692012e-07 0.000000000000e+00 0.000000000000e+00 -2.188577983015e-07 0.000000000000e+00 0.000000000000e+00 -2.177190792117e-07 0.000000000000e+00 0.000000000000e+00 -2.166242851769e-07 0.000000000000e+00 0.000000000000e+00 -2.155720361158e-07 0.000000000000e+00 0.000000000000e+00 -2.145609942975e-07 0.000000000000e+00 0.000000000000e+00 -2.135898602674e-07 0.000000000000e+00 0.000000000000e+00 -2.126573705242e-07 0.000000000000e+00 0.000000000000e+00 -2.117623022584e-07 0.000000000000e+00 0.000000000000e+00 -2.109035028643e-07 0.000000000000e+00 0.000000000000e+00 -2.573887850847e-07 -2.534891594946e-08 0.000000000000e+00 -2.548047180634e-07 -2.509549090156e-08 0.000000000000e+00 -2.523152906693e-07 -2.485054599290e-08 0.000000000000e+00 -2.499164423189e-07 -2.461434274677e-08 0.000000000000e+00 -2.476045929890e-07 -2.438666875030e-08 0.000000000000e+00 -2.453764332969e-07 -2.416722832435e-08 0.000000000000e+00 -2.432288567278e-07 -2.395572222029e-08 0.000000000000e+00 -2.411589277111e-07 -2.375186288505e-08 0.000000000000e+00 -2.391638614687e-07 -2.355537646193e-08 0.000000000000e+00 -2.372410092605e-07 -2.336600221980e-08 0.000000000000e+00 -2.353878467992e-07 -2.318349161099e-08 0.000000000000e+00 -2.336019647733e-07 -2.300760738594e-08 0.000000000000e+00 -2.318810608678e-07 -2.283812282123e-08 0.000000000000e+00 -2.302229328549e-07 -2.267482104502e-08 0.000000000000e+00 -2.286254725044e-07 -2.251749443748e-08 0.000000000000e+00 -2.270866601003e-07 -2.236594409202e-08 0.000000000000e+00 -2.256045594249e-07 -2.221997932325e-08 0.000000000000e+00 -2.241773131219e-07 -2.207941720875e-08 0.000000000000e+00 -2.228031383268e-07 -2.194408216061e-08 0.000000000000e+00 -2.214803225241e-07 -2.181380551641e-08 0.000000000000e+00 -2.202072195456e-07 -2.168842514451e-08 0.000000000000e+00 -2.189822456665e-07 -2.156778506389e-08 0.000000000000e+00 -2.178038757246e-07 -2.145173507011e-08 0.000000000000e+00 -2.166706391996e-07 -2.134013038371e-08 0.000000000000e+00 -2.155811161796e-07 -2.123283137631e-08 0.000000000000e+00 -2.145339331420e-07 -2.112970358099e-08 0.000000000000e+00 -2.135277585105e-07 -2.103061871159e-08 0.000000000000e+00 -2.125612981297e-07 -2.093545911722e-08 0.000000000000e+00 -2.116332913785e-07 -2.084413375359e-08 0.000000000000e+00 -2.107425106856e-07 -2.075663220292e-08 0.000000000000e+00 -2.098877738685e-07 -2.067320301639e-08 0.000000000000e+00 -2.536648724892e-07 -5.045370012322e-08 0.000000000000e+00 -2.511178714040e-07 -4.994928922625e-08 0.000000000000e+00 -2.486643928367e-07 -4.946175750475e-08 0.000000000000e+00 -2.463002362016e-07 -4.899162500998e-08 0.000000000000e+00 -2.440218313009e-07 -4.853846885504e-08 0.000000000000e+00 -2.418259076619e-07 -4.810170051805e-08 0.000000000000e+00 -2.397094017840e-07 -4.768072439372e-08 0.000000000000e+00 -2.376694201560e-07 -4.727496815441e-08 0.000000000000e+00 -2.357032182050e-07 -4.688388673156e-08 0.000000000000e+00 -2.338081854987e-07 -4.650696117815e-08 0.000000000000e+00 -2.319818342682e-07 -4.614369679694e-08 0.000000000000e+00 -2.302217900587e-07 -4.579362137620e-08 0.000000000000e+00 -2.285257838657e-07 -4.545628365292e-08 0.000000000000e+00 -2.268916453199e-07 -4.513125197342e-08 0.000000000000e+00 -2.253172966890e-07 -4.481811309814e-08 0.000000000000e+00 -2.238007474759e-07 -4.451647112776e-08 0.000000000000e+00 -2.223400894720e-07 -4.422594652927e-08 0.000000000000e+00 -2.209334921892e-07 -4.394617521850e-08 0.000000000000e+00 -2.195791985515e-07 -4.367680770979e-08 0.000000000000e+00 -2.182755208159e-07 -4.341750829981e-08 0.000000000000e+00 -2.170208366252e-07 -4.316795428745e-08 0.000000000000e+00 -2.158135851588e-07 -4.292783521219e-08 0.000000000000e+00 -2.146522633072e-07 -4.269685210679e-08 0.000000000000e+00 -2.135354217972e-07 -4.247471680319e-08 0.000000000000e+00 -2.124616611769e-07 -4.226115138816e-08 0.000000000000e+00 -2.114296275344e-07 -4.205588821888e-08 0.000000000000e+00 -2.104380076920e-07 -4.185867195068e-08 0.000000000000e+00 -2.094855233128e-07 -4.166926841107e-08 0.000000000000e+00 -2.085709222948e-07 -4.148749640277e-08 0.000000000000e+00 -2.076929625126e-07 -4.131333527383e-08 0.000000000000e+00 -2.068503722906e-07 -4.114728011570e-08 0.000000000000e+00 -2.474982346347e-07 -7.507257512406e-08 0.000000000000e+00 -2.450126031526e-07 -7.432203318969e-08 0.000000000000e+00 -2.426186527615e-07 -7.359660813005e-08 0.000000000000e+00 -2.403119443356e-07 -7.289707249278e-08 0.000000000000e+00 -2.380889225502e-07 -7.222279676595e-08 0.000000000000e+00 -2.359463810737e-07 -7.157290522876e-08 0.000000000000e+00 -2.338813275761e-07 -7.094651166809e-08 0.000000000000e+00 -2.318909381800e-07 -7.034276451384e-08 0.000000000000e+00 -2.299725348883e-07 -6.976085275065e-08 0.000000000000e+00 -2.281235707024e-07 -6.920000422361e-08 0.000000000000e+00 -2.263416183290e-07 -6.865948285381e-08 0.000000000000e+00 -2.246243610354e-07 -6.813858602142e-08 0.000000000000e+00 -2.229695849738e-07 -6.763664227382e-08 0.000000000000e+00 -2.213751725346e-07 -6.715300933094e-08 0.000000000000e+00 -2.198390964906e-07 -6.668707231229e-08 0.000000000000e+00 -2.183594147271e-07 -6.623824214184e-08 0.000000000000e+00 -2.169342654191e-07 -6.580595409088e-08 0.000000000000e+00 -2.155618625708e-07 -6.538966641715e-08 0.000000000000e+00 -2.142404918128e-07 -6.498885910209e-08 0.000000000000e+00 -2.129685064223e-07 -6.460303263428e-08 0.000000000000e+00 -2.117443234730e-07 -6.423170684459e-08 0.000000000000e+00 -2.105664200745e-07 -6.387441977716e-08 0.000000000000e+00 -2.094333296350e-07 -6.353072658001e-08 0.000000000000e+00 -2.083436380629e-07 -6.320019846707e-08 0.000000000000e+00 -2.072959797879e-07 -6.288242190271e-08 0.000000000000e+00 -2.062890333629e-07 -6.257699863583e-08 0.000000000000e+00 -2.053215160495e-07 -6.228354871527e-08 0.000000000000e+00 -2.043921756126e-07 -6.200172369258e-08 0.000000000000e+00 -2.034997737362e-07 -6.173125398062e-08 0.000000000000e+00 -2.026430431142e-07 -6.147210906495e-08 0.000000000000e+00 -2.018205602557e-07 -6.122502661988e-08 0.000000000000e+00 -2.389482940569e-07 -9.896844919522e-08 0.000000000000e+00 -2.365477283075e-07 -9.797899984245e-08 0.000000000000e+00 -2.342363093434e-07 -9.702266518557e-08 0.000000000000e+00 -2.320092523850e-07 -9.610046114355e-08 0.000000000000e+00 -2.298630196400e-07 -9.521155727111e-08 0.000000000000e+00 -2.277944930599e-07 -9.435479904018e-08 0.000000000000e+00 -2.258007788527e-07 -9.352901818991e-08 0.000000000000e+00 -2.238791496602e-07 -9.273309213730e-08 0.000000000000e+00 -2.220270197869e-07 -9.196595175596e-08 0.000000000000e+00 -2.202419301829e-07 -9.122657913614e-08 0.000000000000e+00 -2.185215374029e-07 -9.051400391631e-08 0.000000000000e+00 -2.168636047500e-07 -8.982729983795e-08 0.000000000000e+00 -2.152659948486e-07 -8.916558173117e-08 0.000000000000e+00 -2.137266632402e-07 -8.852800287733e-08 0.000000000000e+00 -2.122436527246e-07 -8.791375267561e-08 0.000000000000e+00 -2.108150882701e-07 -8.732205454282e-08 0.000000000000e+00 -2.094391723614e-07 -8.675216399275e-08 0.000000000000e+00 -2.081141806901e-07 -8.620336684179e-08 0.000000000000e+00 -2.068384581026e-07 -8.567497754035e-08 0.000000000000e+00 -2.056104147507e-07 -8.516633757353e-08 0.000000000000e+00 -2.044285223766e-07 -8.467681392596e-08 0.000000000000e+00 -2.032913106805e-07 -8.420579758899e-08 0.000000000000e+00 -2.021973637040e-07 -8.375270209899e-08 0.000000000000e+00 -2.011453161322e-07 -8.331696217043e-08 0.000000000000e+00 -2.001338493643e-07 -8.289803261711e-08 0.000000000000e+00 -1.991616869491e-07 -8.249538839773e-08 0.000000000000e+00 -1.982275882911e-07 -8.210852859150e-08 0.000000000000e+00 -1.973303371348e-07 -8.173699381598e-08 0.000000000000e+00 -1.964687135680e-07 -8.138042872963e-08 0.000000000000e+00 -1.956414129715e-07 -8.103879353030e-08 0.000000000000e+00 -1.948467933168e-07 -8.071306269695e-08 0.000000000000e+00 -2.280974419045e-07 -1.219112023351e-07 0.000000000000e+00 -2.258047928792e-07 -1.206923683604e-07 0.000000000000e+00 -2.235981093115e-07 -1.195143310549e-07 0.000000000000e+00 -2.214721399471e-07 -1.183783373554e-07 0.000000000000e+00 -2.194233635058e-07 -1.172833633116e-07 0.000000000000e+00 -2.174487727803e-07 -1.162279866395e-07 0.000000000000e+00 -2.155455987809e-07 -1.152107683224e-07 0.000000000000e+00 -2.137112365925e-07 -1.142303256231e-07 0.000000000000e+00 -2.119432176530e-07 -1.132853416324e-07 0.000000000000e+00 -2.102391945324e-07 -1.123745625108e-07 0.000000000000e+00 -2.085969301997e-07 -1.114967929779e-07 0.000000000000e+00 -2.070142895336e-07 -1.106508920666e-07 0.000000000000e+00 -2.054892322165e-07 -1.098357694156e-07 0.000000000000e+00 -2.040198066287e-07 -1.090503820236e-07 0.000000000000e+00 -2.026041444430e-07 -1.082937313787e-07 0.000000000000e+00 -2.012404557678e-07 -1.075648608677e-07 0.000000000000e+00 -1.999270247059e-07 -1.068628534101e-07 0.000000000000e+00 -1.986622052400e-07 -1.061868292554e-07 0.000000000000e+00 -1.974444173687e-07 -1.055359439213e-07 0.000000000000e+00 -1.962721434258e-07 -1.049093862240e-07 0.000000000000e+00 -1.951439245369e-07 -1.043063763890e-07 0.000000000000e+00 -1.940583571462e-07 -1.037261642093e-07 0.000000000000e+00 -1.930140895544e-07 -1.031680272457e-07 0.000000000000e+00 -1.920098183485e-07 -1.026312691398e-07 0.000000000000e+00 -1.910442845276e-07 -1.021152182857e-07 0.000000000000e+00 -1.901162687144e-07 -1.016192278814e-07 0.000000000000e+00 -1.892245836833e-07 -1.011426808296e-07 0.000000000000e+00 -1.883680584516e-07 -1.006850112167e-07 0.000000000000e+00 -1.875454951460e-07 -1.002457814225e-07 0.000000000000e+00 -1.867555373244e-07 -9.982494316648e-08 0.000000000000e+00 -1.859962506037e-07 -9.942370037298e-08 0.000000000000e+00 -2.150502471662e-07 -1.436799045462e-07 0.000000000000e+00 -2.128872875073e-07 -1.422434161958e-07 0.000000000000e+00 -2.108065277557e-07 -1.408550181438e-07 0.000000000000e+00 -2.088021082809e-07 -1.395161724830e-07 0.000000000000e+00 -2.068705178873e-07 -1.382256707775e-07 0.000000000000e+00 -2.050088806083e-07 -1.369818365930e-07 0.000000000000e+00 -2.032145770915e-07 -1.357829740756e-07 0.000000000000e+00 -2.014851495646e-07 -1.346274537173e-07 0.000000000000e+00 -1.998182702958e-07 -1.335137235630e-07 0.000000000000e+00 -1.982117260742e-07 -1.324403059555e-07 0.000000000000e+00 -1.966634078277e-07 -1.314057922290e-07 0.000000000000e+00 -1.951713025715e-07 -1.304088377108e-07 0.000000000000e+00 -1.937334867014e-07 -1.294481573585e-07 0.000000000000e+00 -1.923481202335e-07 -1.285225219360e-07 0.000000000000e+00 -1.910134417057e-07 -1.276307546350e-07 0.000000000000e+00 -1.897277636028e-07 -1.267717280230e-07 0.000000000000e+00 -1.884894681709e-07 -1.259443612563e-07 0.000000000000e+00 -1.872970035356e-07 -1.251476174828e-07 0.000000000000e+00 -1.861488800605e-07 -1.243805014105e-07 0.000000000000e+00 -1.850436668762e-07 -1.236420569907e-07 0.000000000000e+00 -1.839799885372e-07 -1.229313651887e-07 0.000000000000e+00 -1.829565217425e-07 -1.222475418082e-07 0.000000000000e+00 -1.819719920583e-07 -1.215897353730e-07 0.000000000000e+00 -1.810251705024e-07 -1.209571251336e-07 0.000000000000e+00 -1.801148697192e-07 -1.203489195029e-07 0.000000000000e+00 -1.792399389023e-07 -1.197643561074e-07 0.000000000000e+00 -1.783992548070e-07 -1.192027075711e-07 0.000000000000e+00 -1.775917002296e-07 -1.186633068661e-07 0.000000000000e+00 -1.768161015478e-07 -1.181456383848e-07 0.000000000000e+00 -1.760710323892e-07 -1.176496464639e-07 0.000000000000e+00 -1.753541811866e-07 -1.171767559140e-07 0.000000000000e+00 -1.999324542041e-07 -1.640649447297e-07 0.000000000000e+00 -1.979196488433e-07 -1.624246266312e-07 0.000000000000e+00 -1.959847778900e-07 -1.608392360958e-07 0.000000000000e+00 -1.941211990780e-07 -1.593104304778e-07 0.000000000000e+00 -1.923253969772e-07 -1.578368272418e-07 0.000000000000e+00 -1.905946443760e-07 -1.564165118238e-07 0.000000000000e+00 -1.889264946238e-07 -1.550475479594e-07 0.000000000000e+00 -1.873186603112e-07 -1.537280751705e-07 0.000000000000e+00 -1.857689768645e-07 -1.524563214882e-07 0.000000000000e+00 -1.842753865918e-07 -1.512305997274e-07 0.000000000000e+00 -1.828359287010e-07 -1.500493014412e-07 0.000000000000e+00 -1.814487317347e-07 -1.489108912282e-07 0.000000000000e+00 -1.801120073330e-07 -1.478139017538e-07 0.000000000000e+00 -1.788240448685e-07 -1.467569293946e-07 0.000000000000e+00 -1.775832067120e-07 -1.457386303829e-07 0.000000000000e+00 -1.763879239788e-07 -1.447577173248e-07 0.000000000000e+00 -1.752366926363e-07 -1.438129560182e-07 0.000000000000e+00 -1.741280698997e-07 -1.429031624870e-07 0.000000000000e+00 -1.730606708426e-07 -1.420272002072e-07 0.000000000000e+00 -1.720331651704e-07 -1.411839774598e-07 0.000000000000e+00 -1.710442741076e-07 -1.403724447839e-07 0.000000000000e+00 -1.700927673483e-07 -1.395915924882e-07 0.000000000000e+00 -1.691774599832e-07 -1.388404482347e-07 0.000000000000e+00 -1.682972092672e-07 -1.381180747506e-07 0.000000000000e+00 -1.674509108331e-07 -1.374235680462e-07 0.000000000000e+00 -1.666374932365e-07 -1.367560574617e-07 0.000000000000e+00 -1.658559070541e-07 -1.361147122803e-07 0.000000000000e+00 -1.651050963268e-07 -1.354987707318e-07 0.000000000000e+00 -1.643839118738e-07 -1.349076442999e-07 0.000000000000e+00 -1.636908338550e-07 -1.343412714141e-07 0.000000000000e+00 -1.630230715942e-07 -1.338012886467e-07 0.000000000000e+00 -1.828897807222e-07 -1.828700498618e-07 0.000000000000e+00 -1.810460585949e-07 -1.810416873486e-07 0.000000000000e+00 -1.792756195125e-07 -1.792745710420e-07 0.000000000000e+00 -1.775708136202e-07 -1.775705285619e-07 0.000000000000e+00 -1.759280952287e-07 -1.759280146879e-07 0.000000000000e+00 -1.743448995463e-07 -1.743448949920e-07 0.000000000000e+00 -1.728189735165e-07 -1.728190116072e-07 0.000000000000e+00 -1.713482215633e-07 -1.713482911832e-07 0.000000000000e+00 -1.699306630137e-07 -1.699307589380e-07 0.000000000000e+00 -1.685644154981e-07 -1.685645345055e-07 0.000000000000e+00 -1.672476853933e-07 -1.672478252144e-07 0.000000000000e+00 -1.659787607991e-07 -1.659789197676e-07 0.000000000000e+00 -1.647560058314e-07 -1.647561826962e-07 0.000000000000e+00 -1.635778556950e-07 -1.635780495269e-07 0.000000000000e+00 -1.624428123681e-07 -1.624430224844e-07 0.000000000000e+00 -1.613494407084e-07 -1.613496666137e-07 0.000000000000e+00 -1.602963648908e-07 -1.602966062372e-07 0.000000000000e+00 -1.592822651137e-07 -1.592825216527e-07 0.000000000000e+00 -1.583058744953e-07 -1.583061460394e-07 0.000000000000e+00 -1.573659761256e-07 -1.573662625048e-07 0.000000000000e+00 -1.564614002094e-07 -1.564617012461e-07 0.000000000000e+00 -1.555910212768e-07 -1.555913367721e-07 0.000000000000e+00 -1.547537553367e-07 -1.547540852089e-07 0.000000000000e+00 -1.539485568454e-07 -1.539489017369e-07 0.000000000000e+00 -1.531744149492e-07 -1.531747786008e-07 0.000000000000e+00 -1.524303475221e-07 -1.524307451534e-07 0.000000000000e+00 -1.517153878621e-07 -1.517158752342e-07 0.000000000000e+00 -1.510285473448e-07 -1.510293195909e-07 0.000000000000e+00 -1.503686984918e-07 -1.503704226312e-07 0.000000000000e+00 -1.497341961136e-07 -1.497391188952e-07 0.000000000000e+00 -1.491216414245e-07 -1.491372481498e-07 0.000000000000e+00 -1.640865335533e-07 -1.999141759432e-07 0.000000000000e+00 -1.624290529369e-07 -1.979153613272e-07 0.000000000000e+00 -1.608399780436e-07 -1.959835384221e-07 0.000000000000e+00 -1.593103440709e-07 -1.941206727507e-07 0.000000000000e+00 -1.578365310913e-07 -1.923250682725e-07 0.000000000000e+00 -1.564161450776e-07 -1.905943910243e-07 0.000000000000e+00 -1.550471448012e-07 -1.889262825984e-07 0.000000000000e+00 -1.537276459766e-07 -1.873184770361e-07 0.000000000000e+00 -1.524558707710e-07 -1.857688159885e-07 0.000000000000e+00 -1.512301302484e-07 -1.842752441824e-07 0.000000000000e+00 -1.500488152286e-07 -1.828358021021e-07 0.000000000000e+00 -1.489103898609e-07 -1.814486191128e-07 0.000000000000e+00 -1.478133864933e-07 -1.801119074154e-07 0.000000000000e+00 -1.467564012382e-07 -1.788239567872e-07 0.000000000000e+00 -1.457380901099e-07 -1.775831298890e-07 0.000000000000e+00 -1.447571655279e-07 -1.763878580352e-07 0.000000000000e+00 -1.438123931238e-07 -1.752366373238e-07 0.000000000000e+00 -1.429025887870e-07 -1.741280250290e-07 0.000000000000e+00 -1.420266158777e-07 -1.730606362200e-07 0.000000000000e+00 -1.411833825842e-07 -1.720331405278e-07 0.000000000000e+00 -1.403718393473e-07 -1.710442590435e-07 0.000000000000e+00 -1.395909763568e-07 -1.700927612727e-07 0.000000000000e+00 -1.388398209565e-07 -1.691774621826e-07 0.000000000000e+00 -1.381174348176e-07 -1.682972193907e-07 0.000000000000e+00 -1.374229101887e-07 -1.674509309727e-07 0.000000000000e+00 -1.367553632498e-07 -1.666375355067e-07 0.000000000000e+00 -1.361139177669e-07 -1.658560201515e-07 0.000000000000e+00 -1.354976566731e-07 -1.651054562310e-07 0.000000000000e+00 -1.349054670664e-07 -1.643851276188e-07 0.000000000000e+00 -1.343355332542e-07 -1.636949678184e-07 0.000000000000e+00 -1.337836747824e-07 -1.630370139429e-07 0.000000000000e+00 -1.437040688727e-07 -2.150332542203e-07 0.000000000000e+00 -1.422479577872e-07 -2.128832130857e-07 0.000000000000e+00 -1.408553879881e-07 -2.108052929597e-07 0.000000000000e+00 -1.395156303562e-07 -2.088015524269e-07 0.000000000000e+00 -1.382249179888e-07 -2.068701558433e-07 0.000000000000e+00 -1.369810283240e-07 -2.050085919110e-07 0.000000000000e+00 -1.357821468078e-07 -2.032143249195e-07 0.000000000000e+00 -1.346266175660e-07 -2.014849186350e-07 0.000000000000e+00 -1.335128825319e-07 -1.998180523198e-07 0.000000000000e+00 -1.324394624478e-07 -1.982115158710e-07 0.000000000000e+00 -1.314049480761e-07 -1.966632019971e-07 0.000000000000e+00 -1.304079944142e-07 -1.951710988752e-07 0.000000000000e+00 -1.294473161668e-07 -1.937332836940e-07 0.000000000000e+00 -1.285216838742e-07 -1.923479170126e-07 0.000000000000e+00 -1.276299205279e-07 -1.910132377313e-07 0.000000000000e+00 -1.267708985041e-07 -1.897275585642e-07 0.000000000000e+00 -1.259435367732e-07 -1.884892618755e-07 0.000000000000e+00 -1.251467983135e-07 -1.872967958030e-07 0.000000000000e+00 -1.243796876625e-07 -1.861486706255e-07 0.000000000000e+00 -1.236412486064e-07 -1.850434552781e-07 0.000000000000e+00 -1.229305619143e-07 -1.839797740117e-07 0.000000000000e+00 -1.222467431336e-07 -1.829563031054e-07 0.000000000000e+00 -1.215889402765e-07 -1.819717676755e-07 0.000000000000e+00 -1.209563311897e-07 -1.810249386393e-07 0.000000000000e+00 -1.203481197603e-07 -1.801146303401e-07 0.000000000000e+00 -1.197635283268e-07 -1.792397005991e-07 0.000000000000e+00 -1.192017773963e-07 -1.783990594103e-07 0.000000000000e+00 -1.186620230241e-07 -1.775917073778e-07 0.000000000000e+00 -1.181431528994e-07 -1.768168749434e-07 0.000000000000e+00 -1.176431134751e-07 -1.760744988533e-07 0.000000000000e+00 -1.171566912768e-07 -1.753668152270e-07 0.000000000000e+00 -1.219391451367e-07 -2.280817770193e-07 0.000000000000e+00 -1.206971680080e-07 -2.258011730333e-07 0.000000000000e+00 -1.195142752523e-07 -2.235971801467e-07 0.000000000000e+00 -1.183772563248e-07 -2.214718800532e-07 0.000000000000e+00 -1.172820755101e-07 -2.194233055512e-07 0.000000000000e+00 -1.162266715435e-07 -2.174487919731e-07 0.000000000000e+00 -1.152094669136e-07 -2.155456519202e-07 0.000000000000e+00 -1.142290482874e-07 -2.137113033546e-07 0.000000000000e+00 -1.132840919346e-07 -2.119432862011e-07 0.000000000000e+00 -1.123733424787e-07 -2.102392573025e-07 0.000000000000e+00 -1.114956042289e-07 -2.085969822478e-07 0.000000000000e+00 -1.106497360158e-07 -2.070143276575e-07 0.000000000000e+00 -1.098346472861e-07 -2.054892544023e-07 0.000000000000e+00 -1.090492948435e-07 -2.040198116568e-07 0.000000000000e+00 -1.082926799734e-07 -2.026041316038e-07 0.000000000000e+00 -1.075638458515e-07 -2.012404246497e-07 0.000000000000e+00 -1.068618751799e-07 -1.999269750168e-07 0.000000000000e+00 -1.061858879903e-07 -1.986621366455e-07 0.000000000000e+00 -1.055350395587e-07 -1.974443293364e-07 0.000000000000e+00 -1.049085184532e-07 -1.962720350417e-07 0.000000000000e+00 -1.043055446038e-07 -1.951437943092e-07 0.000000000000e+00 -1.037253674064e-07 -1.940582027893e-07 0.000000000000e+00 -1.031672637020e-07 -1.930139078317e-07 0.000000000000e+00 -1.026305353045e-07 -1.920096052715e-07 0.000000000000e+00 -1.021145050281e-07 -1.910440369097e-07 0.000000000000e+00 -1.016185077632e-07 -1.901159905296e-07 0.000000000000e+00 -1.011418650195e-07 -1.892243089679e-07 0.000000000000e+00 -1.006838036887e-07 -1.883679308700e-07 0.000000000000e+00 -1.002431869061e-07 -1.875460403444e-07 0.000000000000e+00 -9.981761564040e-08 -1.867585850679e-07 0.000000000000e+00 -9.940044389284e-08 -1.860080213746e-07 0.000000000000e+00 -9.900228511520e-08 -2.389341994086e-07 0.000000000000e+00 -9.798428842492e-08 -2.365449111053e-07 0.000000000000e+00 -9.702208701194e-08 -2.342361056493e-07 0.000000000000e+00 -9.609869633970e-08 -2.320097588610e-07 0.000000000000e+00 -9.520959093782e-08 -2.298637689043e-07 0.000000000000e+00 -9.435284758000e-08 -2.277953435417e-07 0.000000000000e+00 -9.352713260937e-08 -2.258016731443e-07 0.000000000000e+00 -9.273128562768e-08 -2.238800574867e-07 0.000000000000e+00 -9.196422826635e-08 -2.220279225002e-07 0.000000000000e+00 -9.122494035377e-08 -2.202428155187e-07 0.000000000000e+00 -9.051245105941e-08 -2.185223971692e-07 0.000000000000e+00 -8.982583407321e-08 -2.168644335201e-07 0.000000000000e+00 -8.916420417004e-08 -2.152667891108e-07 0.000000000000e+00 -8.852671451847e-08 -2.137274207716e-07 0.000000000000e+00 -8.791255432860e-08 -2.122443721211e-07 0.000000000000e+00 -8.732094677239e-08 -2.108157685809e-07 0.000000000000e+00 -8.675114708257e-08 -2.094398127691e-07 0.000000000000e+00 -8.620244079183e-08 -2.081147802186e-07 0.000000000000e+00 -8.567414204410e-08 -2.068390153354e-07 0.000000000000e+00 -8.516559200977e-08 -2.056109275232e-07 0.000000000000e+00 -8.467615729644e-08 -2.044289874642e-07 0.000000000000e+00 -8.420522831888e-08 -2.032917234895e-07 0.000000000000e+00 -8.375221747457e-08 -2.021977180418e-07 0.000000000000e+00 -8.331655670010e-08 -2.011456042852e-07 0.000000000000e+00 -8.289769316851e-08 -2.001340632801e-07 0.000000000000e+00 -8.249507877339e-08 -1.991618234679e-07 0.000000000000e+00 -8.210813822909e-08 -1.982276692921e-07 0.000000000000e+00 -8.173616252363e-08 -1.973304838303e-07 0.000000000000e+00 -8.137794520900e-08 -1.964694118132e-07 0.000000000000e+00 -8.103054806567e-08 -1.956444331583e-07 0.000000000000e+00 -8.068517665526e-08 -1.948582953910e-07 0.000000000000e+00 -7.511655380010e-08 -2.474860673121e-07 0.000000000000e+00 -7.432814365880e-08 -2.450109207671e-07 0.000000000000e+00 -7.359521109179e-08 -2.426196363532e-07 0.000000000000e+00 -7.289428584522e-08 -2.403138206205e-07 0.000000000000e+00 -7.221982976005e-08 -2.380911872066e-07 0.000000000000e+00 -7.157000716416e-08 -2.359488372224e-07 0.000000000000e+00 -7.094374781870e-08 -2.338838768047e-07 0.000000000000e+00 -7.034016066208e-08 -2.318935245978e-07 0.000000000000e+00 -6.975842180091e-08 -2.299751246334e-07 0.000000000000e+00 -6.919775261759e-08 -2.281261423393e-07 0.000000000000e+00 -6.865741342959e-08 -2.263441578204e-07 0.000000000000e+00 -6.813669977567e-08 -2.246268589332e-07 0.000000000000e+00 -6.763493936120e-08 -2.229720347672e-07 0.000000000000e+00 -6.715148960255e-08 -2.213775695775e-07 0.000000000000e+00 -6.668573553520e-08 -2.198414372484e-07 0.000000000000e+00 -6.623708807242e-08 -2.183616961960e-07 0.000000000000e+00 -6.580498246116e-08 -2.169364846422e-07 0.000000000000e+00 -6.538887687814e-08 -2.155640162269e-07 0.000000000000e+00 -6.498825106500e-08 -2.142425758697e-07 0.000000000000e+00 -6.460260498053e-08 -2.129705158084e-07 0.000000000000e+00 -6.423145740038e-08 -2.117462517374e-07 0.000000000000e+00 -6.387434444546e-08 -2.105682589342e-07 0.000000000000e+00 -6.353081801219e-08 -2.094350682186e-07 0.000000000000e+00 -6.320044385765e-08 -2.083452616270e-07 0.000000000000e+00 -6.288279809103e-08 -2.072974681129e-07 0.000000000000e+00 -6.257745635341e-08 -2.062903613402e-07 0.000000000000e+00 -6.228395343017e-08 -2.053226683108e-07 0.000000000000e+00 -6.200163313546e-08 -2.043932198975e-07 0.000000000000e+00 -6.172911574568e-08 -2.035011458927e-07 0.000000000000e+00 -6.146248723547e-08 -2.026465402532e-07 0.000000000000e+00 -6.118934505470e-08 -2.018326043822e-07 0.000000000000e+00 -5.051887221812e-08 -2.536544314172e-07 0.000000000000e+00 -4.995687512616e-08 -2.511169883854e-07 0.000000000000e+00 -4.945810477735e-08 -2.486664079503e-07 0.000000000000e+00 -4.898641219325e-08 -2.463037220742e-07 0.000000000000e+00 -4.853342748073e-08 -2.440262565620e-07 0.000000000000e+00 -4.809701398174e-08 -2.418309323026e-07 0.000000000000e+00 -4.767636361265e-08 -2.397147830961e-07 0.000000000000e+00 -4.727091829495e-08 -2.376749934568e-07 0.000000000000e+00 -4.688015778172e-08 -2.357088788354e-07 0.000000000000e+00 -4.650357166362e-08 -2.338138704868e-07 0.000000000000e+00 -4.614066314306e-08 -2.319875072441e-07 0.000000000000e+00 -4.579095410079e-08 -2.302274304066e-07 0.000000000000e+00 -4.545398725571e-08 -2.285313796465e-07 0.000000000000e+00 -4.512932625436e-08 -2.268971889774e-07 0.000000000000e+00 -4.481655461997e-08 -2.253227826337e-07 0.000000000000e+00 -4.451527430483e-08 -2.238061707798e-07 0.000000000000e+00 -4.422510413247e-08 -2.223454451295e-07 0.000000000000e+00 -4.394567832400e-08 -2.209387744841e-07 0.000000000000e+00 -4.367664521062e-08 -2.195844001634e-07 0.000000000000e+00 -4.341766627435e-08 -2.182806312645e-07 0.000000000000e+00 -4.316841568439e-08 -2.170258396527e-07 0.000000000000e+00 -4.292858057308e-08 -2.158184546135e-07 0.000000000000e+00 -4.269786224564e-08 -2.146569571950e-07 0.000000000000e+00 -4.247597782612e-08 -2.135398747068e-07 0.000000000000e+00 -4.226265907185e-08 -2.124657771053e-07 0.000000000000e+00 -4.205763529047e-08 -2.114332804700e-07 0.000000000000e+00 -4.186055594374e-08 -2.104410722780e-07 0.000000000000e+00 -4.167071129047e-08 -2.094879990051e-07 0.000000000000e+00 -4.148611479558e-08 -2.085733267865e-07 0.000000000000e+00 -4.130062768965e-08 -2.076974788115e-07 0.000000000000e+00 -4.109517895832e-08 -2.068640864811e-07 0.000000000000e+00 -2.547326264872e-08 -2.573797952091e-07 0.000000000000e+00 -2.511010508414e-08 -2.548067226916e-07 0.000000000000e+00 -2.483797715396e-08 -2.523183695879e-07 0.000000000000e+00 -2.459761933885e-08 -2.499200388983e-07 0.000000000000e+00 -2.437187164563e-08 -2.476093604535e-07 0.000000000000e+00 -2.415548336601e-08 -2.453827786348e-07 0.000000000000e+00 -2.394675731904e-08 -2.432368577196e-07 0.000000000000e+00 -2.374509696088e-08 -2.411684588966e-07 0.000000000000e+00 -2.355024673893e-08 -2.391747025366e-07 0.000000000000e+00 -2.336204819351e-08 -2.372529108485e-07 0.000000000000e+00 -2.318036184447e-08 -2.354005646513e-07 0.000000000000e+00 -2.300504453888e-08 -2.336152745216e-07 0.000000000000e+00 -2.283594540508e-08 -2.318947619667e-07 0.000000000000e+00 -2.267290777389e-08 -2.302368467967e-07 0.000000000000e+00 -2.251577257857e-08 -2.286394383022e-07 0.000000000000e+00 -2.236438184529e-08 -2.271005286757e-07 0.000000000000e+00 -2.221858181239e-08 -2.256181878923e-07 0.000000000000e+00 -2.207822564292e-08 -2.241905595486e-07 0.000000000000e+00 -2.194317574768e-08 -2.228158575011e-07 0.000000000000e+00 -2.181330564482e-08 -2.214923632883e-07 0.000000000000e+00 -2.168850096402e-08 -2.202184245931e-07 0.000000000000e+00 -2.156865852807e-08 -2.189924552210e-07 0.000000000000e+00 -2.145368097384e-08 -2.178129375027e-07 0.000000000000e+00 -2.134346083714e-08 -2.166784286866e-07 0.000000000000e+00 -2.123783967077e-08 -2.155875740330e-07 0.000000000000e+00 -2.113650686263e-08 -2.145391313284e-07 0.000000000000e+00 -2.103874941118e-08 -2.135320145596e-07 0.000000000000e+00 -2.094282332964e-08 -2.125653691811e-07 0.000000000000e+00 -2.084433908757e-08 -2.116386955974e-07 0.000000000000e+00 -2.073201632799e-08 -2.107520329010e-07 0.000000000000e+00 -2.057627936560e-08 -2.099061666130e-07 0.000000000000e+00 0.000000000000e+00 -2.587808566109e-07 0.000000000000e+00 0.000000000000e+00 -2.562680230366e-07 0.000000000000e+00 0.000000000000e+00 -2.537593010732e-07 0.000000000000e+00 0.000000000000e+00 -2.513198715659e-07 0.000000000000e+00 0.000000000000e+00 -2.489661047426e-07 0.000000000000e+00 0.000000000000e+00 -2.467001495489e-07 0.000000000000e+00 0.000000000000e+00 -2.445199162393e-07 0.000000000000e+00 0.000000000000e+00 -2.424221414214e-07 0.000000000000e+00 0.000000000000e+00 -2.404033718734e-07 0.000000000000e+00 0.000000000000e+00 -2.384602801339e-07 0.000000000000e+00 0.000000000000e+00 -2.365897543194e-07 0.000000000000e+00 0.000000000000e+00 -2.347889100152e-07 0.000000000000e+00 0.000000000000e+00 -2.330550767140e-07 0.000000000000e+00 0.000000000000e+00 -2.313857777329e-07 0.000000000000e+00 0.000000000000e+00 -2.297787105512e-07 0.000000000000e+00 0.000000000000e+00 -2.282317297097e-07 0.000000000000e+00 0.000000000000e+00 -2.267428329420e-07 0.000000000000e+00 0.000000000000e+00 -2.253101499853e-07 0.000000000000e+00 0.000000000000e+00 -2.239319337854e-07 0.000000000000e+00 0.000000000000e+00 -2.226065531252e-07 0.000000000000e+00 0.000000000000e+00 -2.213324856346e-07 0.000000000000e+00 0.000000000000e+00 -2.201083090196e-07 0.000000000000e+00 0.000000000000e+00 -2.189326870363e-07 0.000000000000e+00 0.000000000000e+00 -2.178043428640e-07 0.000000000000e+00 0.000000000000e+00 -2.167220041053e-07 0.000000000000e+00 0.000000000000e+00 -2.156842848717e-07 0.000000000000e+00 0.000000000000e+00 -2.146894233235e-07 0.000000000000e+00 0.000000000000e+00 -2.137346772149e-07 0.000000000000e+00 0.000000000000e+00 -2.128148780930e-07 0.000000000000e+00 0.000000000000e+00 -2.119188448847e-07 0.000000000000e+00 0.000000000000e+00 -2.110201875797e-07 0.000000000000e+00 
        </DataArray>
        <DataArray type="Float64" Name="NORMSTRESS_1" NumberOfComponents="3" format="ascii">
          9.999996303080e-01 8.598742799112e-04 0.000000000000e+00 9.999998234379e-01 5.942425823157e-04 0.000000000000e+00 9.999999022804e-01 4.420850633402e-04 0.000000000000e+00 9.999999420927e-01 3.403153466578e-04 0.000000000000e+00 9.999999636724e-01 2.695462512543e-04 0.000000000000e+00 9.999999758913e-01 2.195844273649e-04 0.000000000000e+00 9.999999830636e-01 1.840453944385e-04 0.000000000000e+00 9.999999874194e-01 1.586225368635e-04 0.000000000000e+00 9.999999901545e-01 1.403246638294e-04 0.000000000000e+00 9.999999919298e-01 1.270451489591e-04 0.000000000000e+00 9.999999931223e-01 1.172837015776e-04 0.000000000000e+00 9.999999939547e-01 1.099569635759e-04 0.000000000000e+00 9.999999945643e-01 1.042661608965e-04 0.000000000000e+00 9.999999950398e-01 9.960117990847e-05 0.000000000000e+00 9.999999954427e-01 9.547053297585e-05 0.000000000000e+00 9.999999958188e-01 9.144643220682e-05 0.000000000000e+00 9.999999962051e-01 8.711911017716e-05 0.000000000000e+00 9.999999966334e-01 8.205569886882e-05 0.000000000000e+00 9.999999971304e-01 7.575790885051e-05 0.000000000000e+00 9.999999977140e-01 6.761697046825e-05 0.000000000000e+00 9.999999983836e-01 5.685842788693e-05 0.000000000000e+00 9.999999990979e-01 4.247638760818e-05 0.000000000000e+00 9.999999997321e-01 2.314864226561e-05 0.000000000000e+00 9.999999999959e-01 -2.870229053199e-06 0.000000000000e+00 9.999999992825e-01 -3.788205828641e-05 0.000000000000e+00 9.999999963962e-01 -8.489816223144e-05 0.000000000000e+00 9.999999890818e-01 -1.477715819324e-04 0.000000000000e+00 9.999999732885e-01 -2.311341791812e-04 0.000000000000e+00 9.999999423600e-01 -3.395289713299e-04 0.000000000000e+00 9.999998878298e-01 -4.736459452916e-04 0.000000000000e+00 9.999998130651e-01 -6.114489723139e-04 0.000000000000e+00 9.951911650955e-01 9.795174789629e-02 0.000000000000e+00 9.951859328815e-01 9.800489270883e-02 0.000000000000e+00 9.951850184680e-01 9.801417763149e-02 0.000000000000e+00 9.951848105861e-01 9.801628833390e-02 0.000000000000e+00 9.951847599785e-01 9.801680216436e-02 0.000000000000e+00 9.951847453014e-01 9.801695118416e-02 0.000000000000e+00 9.951847392983e-01 9.801701213471e-02 0.000000000000e+00 9.951847357092e-01 9.801704857543e-02 0.000000000000e+00 9.951847330061e-01 9.801707601984e-02 0.000000000000e+00 9.951847308206e-01 9.801709821045e-02 0.000000000000e+00 9.951847289980e-01 9.801711671578e-02 0.000000000000e+00 9.951847275029e-01 9.801713189569e-02 0.000000000000e+00 9.951847262963e-01 9.801714414651e-02 0.000000000000e+00 9.951847253637e-01 9.801715361476e-02 0.000000000000e+00 9.951847246945e-01 9.801716040899e-02 0.000000000000e+00 9.951847242696e-01 9.801716472331e-02 0.000000000000e+00 9.951847240840e-01 9.801716660811e-02 0.000000000000e+00 9.951847241198e-01 9.801716624495e-02 0.000000000000e+00 9.951847243776e-01 9.801716362738e-02 0.000000000000e+00 9.951847248365e-01 9.801715896727e-02 0.000000000000e+00 9.951847254840e-01 9.801715239385e-02 0.000000000000e+00 9.951847263327e-01 9.801714377660e-02 0.000000000000e+00 9.951847275386e-01 9.801713153318e-02 0.000000000000e+00 9.951847295886e-01 9.801711071906e-02 0.000000000000e+00 9.951847344969e-01 9.801706088380e-02 0.000000000000e+00 9.951847493895e-01 9.801690967639e-02 0.000000000000e+00 9.951847994468e-01 9.801640143344e-02 0.000000000000e+00 9.951849716816e-01 9.801465267528e-02 0.000000000000e+00 9.951855642933e-01 9.800863544683e-02 0.000000000000e+00 9.951875882799e-01 9.798808158947e-02 0.000000000000e+00 9.951951323009e-01 9.791143265477e-02 0.000000000000e+00 9.808111583548e-01 1.949601796438e-01 0.000000000000e+00 9.807901282525e-01 1.950659486492e-01 0.000000000000e+00 9.807864532672e-01 1.950844255383e-01 0.000000000000e+00 9.807856177005e-01 1.950886263003e-01 0.000000000000e+00 9.807854141408e-01 1.950896496707e-01 0.000000000000e+00 9.807853550234e-01 1.950899468749e-01 0.000000000000e+00 9.807853308226e-01 1.950900685409e-01 0.000000000000e+00 9.807853163076e-01 1.950901415125e-01 0.000000000000e+00 9.807853054012e-01 1.950901963430e-01 0.000000000000e+00 9.807852965433e-01 1.950902408746e-01 0.000000000000e+00 9.807852892238e-01 1.950902776723e-01 0.000000000000e+00 9.807852831814e-01 1.950903080496e-01 0.000000000000e+00 9.807852782882e-01 1.950903326490e-01 0.000000000000e+00 9.807852745374e-01 1.950903515057e-01 0.000000000000e+00 9.807852718421e-01 1.950903650559e-01 0.000000000000e+00 9.807852700943e-01 1.950903738428e-01 0.000000000000e+00 9.807852693194e-01 1.950903777381e-01 0.000000000000e+00 9.807852694782e-01 1.950903769401e-01 0.000000000000e+00 9.807852705018e-01 1.950903717942e-01 0.000000000000e+00 9.807852723055e-01 1.950903627259e-01 0.000000000000e+00 9.807852749177e-01 1.950903495937e-01 0.000000000000e+00 9.807852784088e-01 1.950903320430e-01 0.000000000000e+00 9.807852832023e-01 1.950903079444e-01 0.000000000000e+00 9.807852915031e-01 1.950902662134e-01 0.000000000000e+00 9.807853113084e-01 1.950901666452e-01 0.000000000000e+00 9.807853713492e-01 1.950898647994e-01 0.000000000000e+00 9.807855725890e-01 1.950888530931e-01 0.000000000000e+00 9.807862649525e-01 1.950853722872e-01 0.000000000000e+00 9.807886468308e-01 1.950733970785e-01 0.000000000000e+00 9.807967818171e-01 1.950324915935e-01 0.000000000000e+00 9.808271059431e-01 1.948799329004e-01 0.000000000000e+00 9.569990459615e-01 2.900910650621e-01 0.000000000000e+00 9.569513342644e-01 2.902484174799e-01 0.000000000000e+00 9.569429985207e-01 2.902758990724e-01 0.000000000000e+00 9.569411031592e-01 2.902821473747e-01 0.000000000000e+00 9.569406412404e-01 2.902836701271e-01 0.000000000000e+00 9.569405069285e-01 2.902841128953e-01 0.000000000000e+00 9.569404519370e-01 2.902842941783e-01 0.000000000000e+00 9.569404189593e-01 2.902844028914e-01 0.000000000000e+00 9.569403942659e-01 2.902844842946e-01 0.000000000000e+00 9.569403741655e-01 2.902845505569e-01 0.000000000000e+00 9.569403575742e-01 2.902846052509e-01 0.000000000000e+00 9.569403439332e-01 2.902846502194e-01 0.000000000000e+00 9.569403329560e-01 2.902846864065e-01 0.000000000000e+00 9.569403244066e-01 2.902847145900e-01 0.000000000000e+00 9.569403182787e-01 2.902847347908e-01 0.000000000000e+00 9.569403143919e-01 2.902847476041e-01 0.000000000000e+00 9.569403126217e-01 2.902847534396e-01 0.000000000000e+00 9.569403129178e-01 2.902847524634e-01 0.000000000000e+00 9.569403152130e-01 2.902847448972e-01 0.000000000000e+00 9.569403193491e-01 2.902847312624e-01 0.000000000000e+00 9.569403252025e-01 2.902847119663e-01 0.000000000000e+00 9.569403330653e-01 2.902846860462e-01 0.000000000000e+00 9.569403440160e-01 2.902846499466e-01 0.000000000000e+00 9.569403629705e-01 2.902845874618e-01 0.000000000000e+00 9.569404079254e-01 2.902844392653e-01 0.000000000000e+00 9.569405443091e-01 2.902839896678e-01 0.000000000000e+00 9.569410010603e-01 2.902824839525e-01 0.000000000000e+00 9.569425718040e-01 2.902773058115e-01 0.000000000000e+00 9.569479747570e-01 2.902594935715e-01 0.000000000000e+00 9.569664296422e-01 2.901986432392e-01 0.000000000000e+00 9.570352353802e-01 2.899716507536e-01 0.000000000000e+00 9.239851874914e-01 3.824282590191e-01 0.000000000000e+00 9.238993264916e-01 3.826356419733e-01 0.000000000000e+00 9.238843313500e-01 3.826718467381e-01 0.000000000000e+00 9.238809219807e-01 3.826800778721e-01 0.000000000000e+00 9.238800909791e-01 3.826820841017e-01 0.000000000000e+00 9.238798495523e-01 3.826826669595e-01 0.000000000000e+00 9.238797507896e-01 3.826829053943e-01 0.000000000000e+00 9.238796917650e-01 3.826830478925e-01 0.000000000000e+00 9.238796477795e-01 3.826831540829e-01 0.000000000000e+00 9.238796121164e-01 3.826832401812e-01 0.000000000000e+00 9.238795826553e-01 3.826833113066e-01 0.000000000000e+00 9.238795584461e-01 3.826833697529e-01 0.000000000000e+00 9.238795390438e-01 3.826834165941e-01 0.000000000000e+00 9.238795239688e-01 3.826834529886e-01 0.000000000000e+00 9.238795130403e-01 3.826834793723e-01 0.000000000000e+00 9.238795060869e-01 3.826834961591e-01 0.000000000000e+00 9.238795029290e-01 3.826835037831e-01 0.000000000000e+00 9.238795034187e-01 3.826835026007e-01 0.000000000000e+00 9.238795072852e-01 3.826834932662e-01 0.000000000000e+00 9.238795144784e-01 3.826834759003e-01 0.000000000000e+00 9.238795248137e-01 3.826834509486e-01 0.000000000000e+00 9.238795386645e-01 3.826834175099e-01 0.000000000000e+00 9.238795580950e-01 3.826833706006e-01 0.000000000000e+00 9.238795919324e-01 3.826832889099e-01 0.000000000000e+00 9.238796728321e-01 3.826830936005e-01 0.000000000000e+00 9.238799181518e-01 3.826825013452e-01 0.000000000000e+00 9.238807399702e-01 3.826805172883e-01 0.000000000000e+00 9.238835656897e-01 3.826736952660e-01 0.000000000000e+00 9.238932861087e-01 3.826502265560e-01 0.000000000000e+00 9.239264931076e-01 3.825700397757e-01 0.000000000000e+00 9.240503373201e-01 3.822708125120e-01 0.000000000000e+00 8.820891410670e-01 4.710825269649e-01 0.000000000000e+00 8.819527194599e-01 4.713378837281e-01 0.000000000000e+00 8.819289083491e-01 4.713824356275e-01 0.000000000000e+00 8.819234959965e-01 4.713925616822e-01 0.000000000000e+00 8.819221774872e-01 4.713950284595e-01 0.000000000000e+00 8.819217952538e-01 4.713957435705e-01 0.000000000000e+00 8.819216397834e-01 4.713960344357e-01 0.000000000000e+00 8.819215476649e-01 4.713962067776e-01 0.000000000000e+00 8.819214793695e-01 4.713963345496e-01 0.000000000000e+00 8.819214243701e-01 4.713964374463e-01 0.000000000000e+00 8.819213790648e-01 4.713965222065e-01 0.000000000000e+00 8.819213418664e-01 4.713965917999e-01 0.000000000000e+00 8.819213120532e-01 4.713966475765e-01 0.000000000000e+00 8.819212889642e-01 4.713966907729e-01 0.000000000000e+00 8.819212722239e-01 4.713967220918e-01 0.000000000000e+00 8.819212614165e-01 4.713967423111e-01 0.000000000000e+00 8.819212563779e-01 4.713967517377e-01 0.000000000000e+00 8.819212568891e-01 4.713967507813e-01 0.000000000000e+00 8.819212625477e-01 4.713967401947e-01 0.000000000000e+00 8.819212732365e-01 4.713967201974e-01 0.000000000000e+00 8.819212887336e-01 4.713966912044e-01 0.000000000000e+00 8.819213097018e-01 4.713966519757e-01 0.000000000000e+00 8.819213394843e-01 4.713965962566e-01 0.000000000000e+00 8.819213921137e-01 4.713964977939e-01 0.000000000000e+00 8.819215197599e-01 4.713962589843e-01 0.000000000000e+00 8.819219084900e-01 4.713955317198e-01 0.000000000000e+00 8.819232128525e-01 4.713930914131e-01 0.000000000000e+00 8.819276993463e-01 4.713846975939e-01 0.000000000000e+00 8.819431365056e-01 4.713558146142e-01 0.000000000000e+00 8.819958876217e-01 4.712570999131e-01 0.000000000000e+00 8.821927116076e-01 4.708885426367e-01 0.000000000000e+00 8.317167993093e-01 5.552001132445e-01 0.000000000000e+00 8.315159385363e-01 5.555008946529e-01 0.000000000000e+00 8.314809103753e-01 5.555533238866e-01 0.000000000000e+00 8.314729519848e-01 5.555652347994e-01 0.000000000000e+00 8.314710153398e-01 5.555681332201e-01 0.000000000000e+00 8.314704559391e-01 5.555689704261e-01 0.000000000000e+00 8.314702307634e-01 5.555693074263e-01 0.000000000000e+00 8.314700989529e-01 5.555695046951e-01 0.000000000000e+00 8.314700022844e-01 5.555696493701e-01 0.000000000000e+00 8.314699248767e-01 5.555697652190e-01 0.000000000000e+00 8.314698615107e-01 5.555698600530e-01 0.000000000000e+00 8.314698097073e-01 5.555699375824e-01 0.000000000000e+00 8.314697682326e-01 5.555699996537e-01 0.000000000000e+00 8.314697360917e-01 5.555700477560e-01 0.000000000000e+00 8.314697126812e-01 5.555700827924e-01 0.000000000000e+00 8.314696974731e-01 5.555701055529e-01 0.000000000000e+00 8.314696901937e-01 5.555701164472e-01 0.000000000000e+00 8.314696903970e-01 5.555701161430e-01 0.000000000000e+00 8.314696976741e-01 5.555701052520e-01 0.000000000000e+00 8.314697117731e-01 5.555700841513e-01 0.000000000000e+00 8.314697326561e-01 5.555700528977e-01 0.000000000000e+00 8.314697612289e-01 5.555700101356e-01 0.000000000000e+00 8.314698025321e-01 5.555699483209e-01 0.000000000000e+00 8.314698775129e-01 5.555698361041e-01 0.000000000000e+00 8.314700628687e-01 5.555695586991e-01 0.000000000000e+00 8.314706328044e-01 5.555687057276e-01 0.000000000000e+00 8.314725495838e-01 5.555658370425e-01 0.000000000000e+00 8.314791481053e-01 5.555559614172e-01 0.000000000000e+00 8.315018608908e-01 5.555219665639e-01 0.000000000000e+00 8.315795069529e-01 5.554057288289e-01 0.000000000000e+00 8.318694100328e-01 5.549714268786e-01 0.000000000000e+00 7.733568436834e-01 6.339709712030e-01 0.000000000000e+00 7.730753919464e-01 6.343141480110e-01 0.000000000000e+00 7.730263676498e-01 6.343738920527e-01 0.000000000000e+00 7.730152345995e-01 6.343874581651e-01 0.000000000000e+00 7.730125281449e-01 6.343907560259e-01 0.000000000000e+00 7.730117494912e-01 6.343917048233e-01 0.000000000000e+00 7.730114394889e-01 6.343920825636e-01 0.000000000000e+00 7.730112606627e-01 6.343923004645e-01 0.000000000000e+00 7.730111314935e-01 6.343924578580e-01 0.000000000000e+00 7.730110289329e-01 6.343925828287e-01 0.000000000000e+00 7.730109456292e-01 6.343926843347e-01 0.000000000000e+00 7.730108778839e-01 6.343927668828e-01 0.000000000000e+00 7.730108238300e-01 6.343928327478e-01 0.000000000000e+00 7.730107819150e-01 6.343928838213e-01 0.000000000000e+00 7.730107512196e-01 6.343929212238e-01 0.000000000000e+00 7.730107312107e-01 6.343929456047e-01 0.000000000000e+00 7.730107213134e-01 6.343929576646e-01 0.000000000000e+00 7.730107207587e-01 6.343929583406e-01 0.000000000000e+00 7.730107293272e-01 6.343929478999e-01 0.000000000000e+00 7.730107466113e-01 6.343929268390e-01 0.000000000000e+00 7.730107729132e-01 6.343928947901e-01 0.000000000000e+00 7.730108094025e-01 6.343928503277e-01 0.000000000000e+00 7.730108635447e-01 6.343927843551e-01 0.000000000000e+00 7.730109649351e-01 6.343926608104e-01 0.000000000000e+00 7.730112213423e-01 6.343923483767e-01 0.000000000000e+00 7.730120167668e-01 6.343913791455e-01 0.000000000000e+00 7.730146975653e-01 6.343881125526e-01 0.000000000000e+00 7.730239311782e-01 6.343768610422e-01 0.000000000000e+00 7.730557275433e-01 6.343381134005e-01 0.000000000000e+00 7.731644844011e-01 6.342055503232e-01 0.000000000000e+00 7.735709208107e-01 6.337097367691e-01 0.000000000000e+00 7.075766698948e-01 7.066365800187e-01 0.000000000000e+00 7.071949034280e-01 7.070186479616e-01 0.000000000000e+00 7.071285101577e-01 7.070850515476e-01 0.000000000000e+00 7.071134362068e-01 7.071001261037e-01 0.000000000000e+00 7.071097703955e-01 7.071037919650e-01 0.000000000000e+00 7.071087165215e-01 7.071048458463e-01 0.000000000000e+00 7.071082996235e-01 7.071052627464e-01 0.000000000000e+00 7.071080625336e-01 7.071054998371e-01 0.000000000000e+00 7.071078935327e-01 7.071056688387e-01 0.000000000000e+00 7.071077611851e-01 7.071058011867e-01 0.000000000000e+00 7.071076545104e-01 7.071059078616e-01 0.000000000000e+00 7.071075685718e-01 7.071059938004e-01 0.000000000000e+00 7.071075000224e-01 7.071060623499e-01 0.000000000000e+00 7.071074472323e-01 7.071061151402e-01 0.000000000000e+00 7.071074084305e-01 7.071061539421e-01 0.000000000000e+00 7.071073829331e-01 7.071061794395e-01 0.000000000000e+00 7.071073697350e-01 7.071061926376e-01 0.000000000000e+00 7.071073683422e-01 7.071061940304e-01 0.000000000000e+00 7.071073783260e-01 7.071061840465e-01 0.000000000000e+00 7.071073994049e-01 7.071061629676e-01 0.000000000000e+00 7.071074319082e-01 7.071061304643e-01 0.000000000000e+00 7.071074780445e-01 7.071060843279e-01 0.000000000000e+00 7.071075492105e-01 7.071060131617e-01 0.000000000000e+00 7.071076849356e-01 7.071058774364e-01 0.000000000000e+00 7.071080328165e-01 7.071055295544e-01 0.000000000000e+00 7.071091122621e-01 7.071044501033e-01 0.000000000000e+00 7.071127470832e-01 7.071008152395e-01 0.000000000000e+00 7.071252569677e-01 7.070883049226e-01 0.000000000000e+00 7.071683389916e-01 7.070452180221e-01 0.000000000000e+00 7.073157818377e-01 7.068977187425e-01 0.000000000000e+00 7.078675039938e-01 7.063452390932e-01 0.000000000000e+00 6.350180687492e-01 7.724972830775e-01 0.000000000000e+00 6.345104987295e-01 7.729142429804e-01 0.000000000000e+00 6.344224118814e-01 7.729865479441e-01 0.000000000000e+00 6.344024013478e-01 7.730029709931e-01 0.000000000000e+00 6.343975192373e-01 7.730069777082e-01 0.000000000000e+00 6.343961062559e-01 7.730081373228e-01 0.000000000000e+00 6.343955437134e-01 7.730085989927e-01 0.000000000000e+00 6.343952257419e-01 7.730088599465e-01 0.000000000000e+00 6.343950010829e-01 7.730090443203e-01 0.000000000000e+00 6.343948279161e-01 7.730091864353e-01 0.000000000000e+00 6.343946896388e-01 7.730092999169e-01 0.000000000000e+00 6.343945796221e-01 7.730093902056e-01 0.000000000000e+00 6.343944918352e-01 7.730094622508e-01 0.000000000000e+00 6.343944247549e-01 7.730095173023e-01 0.000000000000e+00 6.343943752597e-01 7.730095579221e-01 0.000000000000e+00 6.343943428906e-01 7.730095844868e-01 0.000000000000e+00 6.343943256571e-01 7.730095986300e-01 0.000000000000e+00 6.343943237553e-01 7.730096001908e-01 0.000000000000e+00 6.343943363882e-01 7.730095898231e-01 0.000000000000e+00 6.343943637718e-01 7.730095673500e-01 0.000000000000e+00 6.343944070920e-01 7.730095317979e-01 0.000000000000e+00 6.343944700454e-01 7.730094801332e-01 0.000000000000e+00 6.343945692626e-01 7.730093987075e-01 0.000000000000e+00 6.343947581218e-01 7.730092437142e-01 0.000000000000e+00 6.343952340036e-01 7.730088531663e-01 0.000000000000e+00 6.343966855257e-01 7.730076619245e-01 0.000000000000e+00 6.344015332870e-01 7.730036834085e-01 0.000000000000e+00 6.344181588538e-01 7.729900385623e-01 0.000000000000e+00 6.344753696507e-01 7.729430802502e-01 0.000000000000e+00 6.346712628472e-01 7.727822384837e-01 0.000000000000e+00 6.354056408567e-01 7.721785231198e-01 0.000000000000e+00 5.563932421305e-01 8.309191056364e-01 0.000000000000e+00 5.557247113019e-01 8.313663724546e-01 0.000000000000e+00 5.556090346199e-01 8.314436845925e-01 0.000000000000e+00 5.555826936692e-01 8.314612862276e-01 0.000000000000e+00 5.555762153926e-01 8.314656149776e-01 0.000000000000e+00 5.555743073467e-01 8.314668899098e-01 0.000000000000e+00 5.555735282189e-01 8.314674105113e-01 0.000000000000e+00 5.555730820314e-01 8.314677086466e-01 0.000000000000e+00 5.555727673537e-01 8.314679189091e-01 0.000000000000e+00 5.555725282019e-01 8.314680787062e-01 0.000000000000e+00 5.555723391241e-01 8.314682050446e-01 0.000000000000e+00 5.555721902478e-01 8.314683045211e-01 0.000000000000e+00 5.555720725612e-01 8.314683831572e-01 0.000000000000e+00 5.555719827600e-01 8.314684431607e-01 0.000000000000e+00 5.555719163374e-01 8.314684875431e-01 0.000000000000e+00 5.555718727971e-01 8.314685166359e-01 0.000000000000e+00 5.555718496742e-01 8.314685320862e-01 0.000000000000e+00 5.555718474779e-01 8.314685335537e-01 0.000000000000e+00 5.555718661940e-01 8.314685210480e-01 0.000000000000e+00 5.555719070097e-01 8.314684937757e-01 0.000000000000e+00 5.555719735502e-01 8.314684493146e-01 0.000000000000e+00 5.555720722126e-01 8.314683833901e-01 0.000000000000e+00 5.555722271495e-01 8.314682798641e-01 0.000000000000e+00 5.555725100764e-01 8.314680908173e-01 0.000000000000e+00 5.555731825192e-01 8.314676415024e-01 0.000000000000e+00 5.555751514197e-01 8.314663259116e-01 0.000000000000e+00 5.555815991146e-01 8.314620176083e-01 0.000000000000e+00 5.556035318928e-01 8.314473617423e-01 0.000000000000e+00 5.556787965523e-01 8.313970622165e-01 0.000000000000e+00 5.559365477909e-01 8.312247318447e-01 0.000000000000e+00 5.569055978708e-01 8.305757972998e-01 0.000000000000e+00 4.724824650490e-01 8.813400706998e-01 0.000000000000e+00 4.716007344604e-01 8.818121950032e-01 0.000000000000e+00 4.714489188821e-01 8.818933704734e-01 0.000000000000e+00 4.714140944734e-01 8.819119862729e-01 0.000000000000e+00 4.714053683877e-01 8.819166506282e-01 0.000000000000e+00 4.714027220066e-01 8.819180651766e-01 0.000000000000e+00 4.714016023144e-01 8.819186636734e-01 0.000000000000e+00 4.714009392439e-01 8.819190180963e-01 0.000000000000e+00 4.714004628017e-01 8.819192727627e-01 0.000000000000e+00 4.714000978720e-01 8.819194678236e-01 0.000000000000e+00 4.713998118652e-01 8.819196206988e-01 0.000000000000e+00 4.713995881553e-01 8.819197402752e-01 0.000000000000e+00 4.713994132396e-01 8.819198337703e-01 0.000000000000e+00 4.713992796581e-01 8.819199051716e-01 0.000000000000e+00 4.713991810550e-01 8.819199578764e-01 0.000000000000e+00 4.713991150326e-01 8.819199931663e-01 0.000000000000e+00 4.713990802416e-01 8.819200117626e-01 0.000000000000e+00 4.713990782041e-01 8.819200128517e-01 0.000000000000e+00 4.713991118352e-01 8.819199948754e-01 0.000000000000e+00 4.713991849747e-01 8.819199557813e-01 0.000000000000e+00 4.713993042736e-01 8.819198920142e-01 0.000000000000e+00 4.713994808757e-01 8.819197976178e-01 0.000000000000e+00 4.713997459970e-01 8.819196559063e-01 0.000000000000e+00 4.714002000861e-01 8.819194131885e-01 0.000000000000e+00 4.714011976030e-01 8.819188799989e-01 0.000000000000e+00 4.714039589347e-01 8.819174040128e-01 0.000000000000e+00 4.714126876352e-01 8.819127382777e-01 0.000000000000e+00 4.714418175353e-01 8.818971667258e-01 0.000000000000e+00 4.715409580998e-01 8.818441613088e-01 0.000000000000e+00 4.718802753118e-01 8.816626371644e-01 0.000000000000e+00 4.731625235158e-01 8.809751564830e-01 0.000000000000e+00 3.841367025561e-01 9.232762283029e-01 0.000000000000e+00 3.829570622383e-01 9.237661438274e-01 0.000000000000e+00 3.827563298180e-01 9.238493340282e-01 0.000000000000e+00 3.827093333124e-01 9.238688035623e-01 0.000000000000e+00 3.826967878234e-01 9.238740003862e-01 0.000000000000e+00 3.826926917404e-01 9.238756970981e-01 0.000000000000e+00 3.826909348825e-01 9.238764248311e-01 0.000000000000e+00 3.826899196399e-01 9.238768453674e-01 0.000000000000e+00 3.826891867701e-01 9.238771489377e-01 0.000000000000e+00 3.826885989022e-01 9.238773924446e-01 0.000000000000e+00 3.826881159542e-01 9.238775924912e-01 0.000000000000e+00 3.826877224471e-01 9.238777554895e-01 0.000000000000e+00 3.826874118149e-01 9.238778841592e-01 0.000000000000e+00 3.826871755668e-01 9.238779820175e-01 0.000000000000e+00 3.826870092040e-01 9.238780509280e-01 0.000000000000e+00 3.826869070712e-01 9.238780932332e-01 0.000000000000e+00 3.826868683320e-01 9.238781092797e-01 0.000000000000e+00 3.826868911091e-01 9.238780998450e-01 0.000000000000e+00 3.826869762438e-01 9.238780645807e-01 0.000000000000e+00 3.826871232850e-01 9.238780036736e-01 0.000000000000e+00 3.826873350374e-01 9.238779159618e-01 0.000000000000e+00 3.826876291443e-01 9.238777941372e-01 0.000000000000e+00 3.826880690672e-01 9.238776119127e-01 0.000000000000e+00 3.826888533354e-01 9.238772870532e-01 0.000000000000e+00 3.826905618819e-01 9.238765793365e-01 0.000000000000e+00 3.826949432605e-01 9.238747644583e-01 0.000000000000e+00 3.827075737449e-01 9.238695324548e-01 0.000000000000e+00 3.827472482492e-01 9.238530965244e-01 0.000000000000e+00 3.828791924755e-01 9.237984217183e-01 0.000000000000e+00 3.833310951890e-01 9.236109957451e-01 0.000000000000e+00 3.850578316572e-01 9.228924456725e-01 0.000000000000e+00 2.922950580386e-01 9.563281858474e-01 0.000000000000e+00 2.906620915923e-01 9.568257670606e-01 0.000000000000e+00 2.903959952883e-01 9.569065607051e-01 0.000000000000e+00 2.903324946285e-01 9.569258291857e-01 0.000000000000e+00 2.903115994098e-01 9.569321685721e-01 0.000000000000e+00 2.903020474672e-01 9.569350663636e-01 0.000000000000e+00 2.902970437250e-01 9.569365843171e-01 0.000000000000e+00 2.902943837295e-01 9.569373912514e-01 0.000000000000e+00 2.902929657639e-01 9.569378214012e-01 0.000000000000e+00 2.902921664391e-01 9.569380638809e-01 0.000000000000e+00 2.902916584344e-01 9.569382179866e-01 0.000000000000e+00 2.902912910536e-01 9.569383294332e-01 0.000000000000e+00 2.902910101417e-01 9.569384146490e-01 0.000000000000e+00 2.902908012230e-01 9.569384780253e-01 0.000000000000e+00 2.902906624958e-01 9.569385201087e-01 0.000000000000e+00 2.902905883589e-01 9.569385425983e-01 0.000000000000e+00 2.902905695202e-01 9.569385483131e-01 0.000000000000e+00 2.902905931695e-01 9.569385411390e-01 0.000000000000e+00 2.902906594832e-01 9.569385210225e-01 0.000000000000e+00 2.902908010297e-01 9.569384780839e-01 0.000000000000e+00 2.902911165760e-01 9.569383823617e-01 0.000000000000e+00 2.902918166401e-01 9.569381699942e-01 0.000000000000e+00 2.902932750814e-01 9.569377275677e-01 0.000000000000e+00 2.902961008721e-01 9.569368703412e-01 0.000000000000e+00 2.903012899958e-01 9.569352961547e-01 0.000000000000e+00 2.903109120396e-01 9.569323771044e-01 0.000000000000e+00 2.903311885075e-01 9.569262254635e-01 0.000000000000e+00 2.903851724688e-01 9.569098450796e-01 0.000000000000e+00 2.905604878560e-01 9.568566260924e-01 0.000000000000e+00 2.911785764222e-01 9.566687183308e-01 0.000000000000e+00 2.936043285735e-01 9.559270360456e-01 0.000000000000e+00 1.980708011784e-01 9.801877155528e-01 0.000000000000e+00 1.956007256854e-01 9.806836167242e-01 0.000000000000e+00 1.952534569410e-01 9.807528167447e-01 0.000000000000e+00 1.952007113647e-01 9.807633161384e-01 0.000000000000e+00 1.951822630644e-01 9.807669877117e-01 0.000000000000e+00 1.951610298009e-01 9.807712131007e-01 0.000000000000e+00 1.951388549498e-01 9.807756253542e-01 0.000000000000e+00 1.951199874860e-01 9.807793791080e-01 0.000000000000e+00 1.951061406651e-01 9.807821337457e-01 0.000000000000e+00 1.950971818051e-01 9.807839158814e-01 0.000000000000e+00 1.950921745960e-01 9.807849119004e-01 0.000000000000e+00 1.950900092597e-01 9.807853426143e-01 0.000000000000e+00 1.950897012778e-01 9.807854038755e-01 0.000000000000e+00 1.950905046150e-01 9.807852440820e-01 0.000000000000e+00 1.950919363798e-01 9.807849592850e-01 0.000000000000e+00 1.950937682354e-01 9.807845949013e-01 0.000000000000e+00 1.950960107857e-01 9.807841488194e-01 0.000000000000e+00 1.950988943894e-01 9.807835752132e-01 0.000000000000e+00 1.951028431150e-01 9.807827897187e-01 0.000000000000e+00 1.951084293838e-01 9.807816784501e-01 0.000000000000e+00 1.951162787925e-01 9.807801169223e-01 0.000000000000e+00 1.951268893955e-01 9.807780059906e-01 0.000000000000e+00 1.951403106314e-01 9.807753357251e-01 0.000000000000e+00 1.951556746931e-01 9.807722786840e-01 0.000000000000e+00 1.951707833459e-01 9.807692722186e-01 0.000000000000e+00 1.951828091203e-01 9.807668790410e-01 0.000000000000e+00 1.951940572912e-01 9.807646404710e-01 0.000000000000e+00 1.952359865411e-01 9.807562946825e-01 0.000000000000e+00 1.954536441311e-01 9.807129411790e-01 0.000000000000e+00 1.963817591932e-01 9.805275134621e-01 0.000000000000e+00 2.001496829395e-01 9.797653313009e-01 0.000000000000e+00 1.051479951997e-01 9.944565848269e-01 0.000000000000e+00 9.869699357450e-02 9.951175324852e-01 0.000000000000e+00 9.734070673828e-02 9.952511174632e-01 0.000000000000e+00 9.719982792551e-02 9.952648860737e-01 0.000000000000e+00 9.736859623418e-02 9.952483893317e-01 0.000000000000e+00 9.758115054370e-02 9.952275714924e-01 0.000000000000e+00 9.776501501827e-02 9.952095266015e-01 0.000000000000e+00 9.790693213490e-02 9.951955750705e-01 0.000000000000e+00 9.801085485007e-02 9.951853457179e-01 0.000000000000e+00 9.808452571073e-02 9.951780874879e-01 0.000000000000e+00 9.813531540719e-02 9.951730803584e-01 0.000000000000e+00 9.816912043305e-02 9.951697462209e-01 0.000000000000e+00 9.819026361271e-02 9.951676603124e-01 0.000000000000e+00 9.820166419073e-02 9.951665353850e-01 0.000000000000e+00 9.820504576662e-02 9.951662016899e-01 0.000000000000e+00 9.820109104932e-02 9.951665919416e-01 0.000000000000e+00 9.818953049467e-02 9.951677326467e-01 0.000000000000e+00 9.816916613062e-02 9.951697417131e-01 0.000000000000e+00 9.813783963251e-02 9.951728314380e-01 0.000000000000e+00 9.809237067072e-02 9.951773142592e-01 0.000000000000e+00 9.802852343283e-02 9.951836054686e-01 0.000000000000e+00 9.794112472715e-02 9.951922106243e-01 0.000000000000e+00 9.782461371244e-02 9.952036700857e-01 0.000000000000e+00 9.767469145820e-02 9.952183954533e-01 0.000000000000e+00 9.749267273013e-02 9.952362426901e-01 0.000000000000e+00 9.729650505004e-02 9.952554396260e-01 0.000000000000e+00 9.714857813764e-02 9.952698899122e-01 0.000000000000e+00 9.722689593519e-02 9.952622421788e-01 0.000000000000e+00 9.801149023031e-02 9.951852831422e-01 0.000000000000e+00 1.007850382496e-01 9.949082249459e-01 0.000000000000e+00 1.094828005655e-01 9.939886902678e-01 0.000000000000e+00 -7.549644616428e-03 9.999715010270e-01 0.000000000000e+00 2.786274327750e-03 9.999961183302e-01 0.000000000000e+00 4.609106947053e-03 9.999893780102e-01 0.000000000000e+00 4.467982829681e-03 9.999900185149e-01 0.000000000000e+00 3.843745208674e-03 9.999926127841e-01 0.000000000000e+00 3.175229765813e-03 9.999949589453e-01 0.000000000000e+00 2.587005902402e-03 9.999966536946e-01 0.000000000000e+00 2.104037798618e-03 9.999977865100e-01 0.000000000000e+00 1.720188951297e-03 9.999985204739e-01 0.000000000000e+00 1.421193204262e-03 9.999989901044e-01 0.000000000000e+00 1.192437597533e-03 9.999992890460e-01 0.000000000000e+00 1.021429196839e-03 9.999994783411e-01 0.000000000000e+00 8.983746771587e-04 9.999995964614e-01 0.000000000000e+00 8.161173541815e-04 9.999996669762e-01 0.000000000000e+00 7.699046142607e-04 9.999997036234e-01 0.000000000000e+00 7.571548173450e-04 9.999997133583e-01 0.000000000000e+00 7.772917498184e-04 9.999996979087e-01 0.000000000000e+00 8.316506350314e-04 9.999996541786e-01 0.000000000000e+00 9.234542335003e-04 9.999995736160e-01 0.000000000000e+00 1.057820806205e-03 9.999994405074e-01 0.000000000000e+00 1.241746065520e-03 9.999992290331e-01 0.000000000000e+00 1.483897267646e-03 9.999988990238e-01 0.000000000000e+00 1.793911460386e-03 9.999983909395e-01 0.000000000000e+00 2.180465143529e-03 9.999976227831e-01 0.000000000000e+00 2.646379732587e-03 9.999964983310e-01 0.000000000000e+00 3.176623960038e-03 9.999949545174e-01 0.000000000000e+00 3.708795925670e-03 9.999931223927e-01 0.000000000000e+00 4.059678666447e-03 9.999917594706e-01 0.000000000000e+00 3.740302412358e-03 9.999930050445e-01 0.000000000000e+00 1.493602320227e-03 9.999988845754e-01 0.000000000000e+00 -6.187588357291e-03 9.999808566919e-01 0.000000000000e+00 
        </DataArray>
        <DataArray type="Float64" Name="NORMSTRESS_2" NumberOfComponents="3" format="ascii">
          0.000000000000e+00 0.000000000000e+00 1.000000000000e+00 0.000000000000e+00 0.000000000000e+00 1.000000000000e+00 0.000000000000e+00 0.000000000000e+00 1.000000000000e+00 0.000000000000e+00 0.000000000000e+00 1.000000000000e+00 0.000000000000e+00 0.000000000000e+00 1.000000000000e+00 0.000000000000e+00 0.000000000000e+00 1.000000000000e+00 0.000000000000e+00 0.000000000000e+00 1.000000000000e+00 0.000000000000e+00 0.000000000000e+00 1.000000000000e+00 0.000000000000e+00 0.000000000000e+00 1.000000000000e+00 0.000000000000e+00 0.000000000000e+00 1.000000000000e+00 0.000000000000e+00 0.000000000000e+00 1.000000000000e+00 0.000000000000e+00 0.000000000000e+00 1.000000000000e+00 0.000000000000e+00 0.000000000000e+00 1.000000000000e+00 0.000000000000e+00 0.000000000000e+00 1.000000000000e+00 0.000000000000e+00 0.000000000000e+00 1.000000000000e+00 0.000000000000e+00 0.000000000000e+00 1.000000000000e+00 0.000000000000e+00 0.000000000000e+00 1.000000000000e+00 0.000000000000e+00 0.000000000000e+00 1.000000000000e+00 0.000000000000e+00 0.000000000000e+00 1.000000000000e+00 0.000000000000e+00 0.000000000000e+00 1.000000000000e+00 0.000000000000e+00 0.000000000000e+00 1.000000000000e+00 0.000000000000e+00 0.000000000000e+00 1.000000000000e+00 0.000000000000e+00 0.000000000000e+00 1.000000000000e+00 0.000000000000e+00 0.000000000000e+00 1.000000000000e+00 0.000000000000e+00 0.000000000000e+00 1.000000000000e+00 0.000000000000e+00 0.000000000000e+00 1.000000000000e+00 0.000000000000e+00 0.000000000000e+00 1.000000000000e+00 0.000000000000e+00 0.000000000000e+00 1.000000000000e+00 0.000000000000e+00 0.000000000000e+00 1.000000000000e+00 0.000000000000e+00 0.000000000000e+00 1.000000000000e+00 0.000000000000e+00 0.000000000000e+00 1.000000000000e+00 0.000000000000e+00 0.000000000000e+00 1.000000000000e+00 0.000000000000e+00 0.000000000000e+00 1.000000000000e+00 0.000000000000e+00 0.000000000000e+00 1.000000000000e+00 0.000000000000e+00 0.000000000000e+00 1.000000000000e+00 0.000000000000e+00 0.000000000000e+00 1.000000000000e+00 0.000000000000e+00 0.000000000000e+00 1.000000000000e+00 0.000000000000e+00 0.000000000000e+00 1.000000000000e+00 0.000000000000e+00 0.000000000000e+00 1.000000000000e+00 0.000000000000e+00 0.000000000000e+00 1.000000000000e+00 0.000000000000e+00 0.000000000000e+00 1.000000000000e+00 0.000000000000e+00 0.000000000000e+00 1.000000000000e+00 0.000000000000e+00 0.000000000000e+00 1.000000000000e+00 0.000000000000e+00 0.000000000000e+00 1.000000000000e+00 0.000000000000e+00 0.000000000000e+00 1.000000000000e+00 0.000000000000e+00 0.000000000000e+00 1.000000000000e+00 0.000000000000e+00 0.000000000000e+00 1.000000000000e+00 0.000000000000e+00 0.000000000000e+00 1.000000000000e+00 0.000000000000e+00 0.000000000000e+00 1.000000000000e+00 0.000000000000e+00 0.000000000000e+00 1.000000000000e+00 0.000000000000e+00 0.000000000000e+00 1.000000000000e+00 0.000000000000e+00 0.000000000000e+00 1.000000000000e+00 0.000000000000e+00 0.000000000000e+00 1.000000000000e+00 0.000000000000e+00 0.000000000000e+00 1.000000000000e+00 0.000000000000e+00 0.000000000000e+00 1.000000000000e+00 0.000000000000e+00 0.000000000000e+00 1.000000000000e+00 0.000000000000e+00 0.000000000000e+00 1.000000000000e+00 0.000000000000e+00 0.000000000000e+00 1.000000000000e+00 0.000000000000e+00 0.000000000000e+00 1.000000000000e+00 0.000000000000e+00 0.000000000000e+00 1.000000000000e+00 0.000000000000e+00 0.000000000000e+00 1.000000000000e+00 0.000000000000e+00 0.000000000000e+00 1.000000000000e+00 0.000000000000e+00 0.000000000000e+00 1.000000000000e+00 0.000000000000e+00 0.000000000000e+00 1.000000000000e+00 0.000000000000e+00 0.000000000000e+00 1.000000000000e+00 0.000000000000e+00 0.000000000000e+00 1.000000000000e+00 0.000000000000e+00 0.000000000000e+00 1.000000000000e+00 0.000000000000e+00 0.000000000000e+00 1.000000000000e+00 0.000000000000e+00 0.000000000000e+00 1.000000000000e+00 0.000000000000e+00 0.000000000000e+00 1.000000000000e+00 0.000000000000e+00 0.000000000000e+00 1.000000000000e+00 0.000000000000e+00 0.000000000000e+00 1.000000000000e+00 0.000000000000e+00 0.000000000000e+00 1.000000000000e+00 0.000000000000e+00 0.000000000000e+00 1.000000000000e+00 0.000000000000e+00 0.000000000000e+00 1.000000000000e+00 0.000000000000e+00 0.000000000000e+00 1.000000000000e+00 0.000000000000e+00 0.000000000000e+00 1.000000000000e+00 0.000000000000e+00 0.000000000000e+00 1.000000000000e+00 0.000000000000e+00 0.000000000000e+00 1.000000000000e+00 0.000000000000e+00 0.000000000000e+00 1.000000000000e+00 0.000000000000e+00 0.000000000000e+00 1.000000000000e+00 0.000000000000e+00 0.000000000000e+00 1.000000000000e+00 0.000000000000e+00 0.000000000000e+00 1.000000000000e+00 0.000000000000e+00 0.000000000000e+00 1.000000000000e+00 0.000000000000e+00 0.000000000000e+00 1.000000000000e+00 0.000000000000e+00 0.000000000000e+00 1.000000000000e+00 0.000000000000e+00 0.000000000000e+00 1.000000000000e+00 0.000000000000e+00 0.000000000000e+00 1.000000000000e+00 0.000000000000e+00 0.000000000000e+00 1.000000000000e+00 0.000000000000e+00 0.000000000000e+00 1.000000000000e+00 0.000000000000e+00 0.000000000000e+00 1.000000000000e+00 0.000000000000e+00 0.000000000000e+00 1.000000000000e+00 0.000000000000e+00 0.000000000000e+00 1.000000000000e+00 0.000000000000e+00 0.000000000000e+00 1.000000000000e+00 0.000000000000e+00 0.000000000000e+00 1.000000000000e+00 0.000000000000e+00 0.000000000000e+00 1.000000000000e+00 0.000000000000e+00 0.000000000000e+00 1.000000000000e+00 0.000000000000e+00 0.000000000000e+00 1.000000000000e+00 0.000000000000e+00 0.000000000000e+00 1.000000000000e+00 0.000000000000e+00 0.000000000000e+00 1.000000000000e+00 0.000000000000e+00 0.000000000000e+00 1.000000000000e+00 0.000000000000e+00 0.000000000000e+00 1.000000000000e+00 0.000000000000e+00 0.000000000000e+00 1.000000000000e+00 0.000000000000e+00 0.000000000000e+00 1.000000000000e+00 0.000000000000e+00 0.000000000000e+00 1.000000000000e+00 0.000000000000e+00 0.000000000000e+00 1.000000000000e+00 0.000000000000e+00 0.000000000000e+00 1.000000000000e+00 0.000000000000e+00 0.000000000000e+00 1.000000000000e+00 0.000000000000e+00 0.000000000000e+00 1.000000000000e+00 0.000000000000e+00 0.000000000000e+00 1.000000000000e+00 0.000000000000e+00 0.000000000000e+00 1.000000000000e+00 0.000000000000e+00 0.000000000000e+00 1.000000000000e+00 0.000000000000e+00 0.000000000000e+00 1.000000000000e+00 0.000000000000e+00 0.000000000000e+00 1.000000000000e+00 0.000000000000e+00 0.000000000000e+00 1.000000000000e+00 0.000000000000e+00 0.000000000000e+00 1.000000000000e+00 0.000000000000e+00 0.000000000000e+00 1.000000000000e+00 0.000000000000e+00 0.000000000000e+00 1.000000000000e+00 0.000000000000e+00 0.000000000000e+00 1.000000000000e+00 0.000000000000e+00 0.000000000000e+00 1.000000000000e+00 0.000000000000e+00 0.000000000000e+00 1.000000000000e+00 0.000000000000e+00 0.000000000000e+00 1.000000000000e+00 0.000000000000e+00 0.000000000000e+00 1.000000000000e+00 0.000000000000e+00 0.000000000000e+00 1.000000000000e+00 0.000000000000e+00 0.000000000000e+00 1.000000000000e+00 0.000000000000e+00 0.000000000000e+00 1.000000000000e+00 0.000000000000e+00 0.000000000000e+00 1.000000000000e+00 0.000000000000e+00 0.000000000000e+00 1.000000000000e+00 0.000000000000e+00 0.000000000000e+00 1.000000000000e+00 0.000000000000e+00 0.000000000000e+00 1.000000000000e+00 0.000000000000e+00 0.000000000000e+00 1.000000000000e+00 0.000000000000e+00 0.000000000000e+00 1.000000000000e+00 0.000000000000e+00 0.000000000000e+00 1.000000000000e+00 0.000000000000e+00 0.000000000000e+00 1.000000000000e+00 0.000000000000e+00 0.000000000000e+00 1.000000000000e+00 0.000000000000e+00 0.000000000000e+00 1.000000000000e+00 0.000000000000e+00 0.000000000000e+00 1.000000000000e+00 0.000000000000e+00 0.000000000000e+00 1.000000000000e+00 0.000000000000e+00 0.000000000000e+00 1.000000000000e+00 0.000000000000e+00 0.000000000000e+00 1.000000000000e+00 0.000000000000e+00 0.000000000000e+00 1.000000000000e+00 0.000000000000e+00 0.000000000000e+00 1.000000000000e+00 0.000000000000e+00 0.000000000000e+00 1.000000000000e+00 0.000000000000e+00 0.000000000000e+00 1.000000000000e+00 0.000000000000e+00 0.000000000000e+00 1.000000000000e+00 0.000000000000e+00 0.000000000000e+00 1.000000000000e+00 0.000000000000e+00 0.000000000000e+00 1.000000000000e+00 0.000000000000e+00 0.000000000000e+00 1.000000000000e+00 0.000000000000e+00 0.000000000000e+00 1.000000000000e+00 0.000000000000e+00 0.000000000000e+00 1.000000000000e+00 0.000000000000e+00 0.000000000000e+00 1.000000000000e+00 0.000000000000e+00 0.000000000000e+00 1.000000000000e+00 0.000000000000e+00 0.000000000000e+00 1.000000000000e+00 0.000000000000e+00 0.000000000000e+00 1.000000000000e+00 0.000000000000e+00 0.000000000000e+00 1.000000000000e+00 0.000000000000e+00 0.000000000000e+00 1.000000000000e+00 0.000000000000e+00 0.000000000000e+00 1.000000000000e+00 0.000000000000e+00 0.000000000000e+00 1.000000000000e+00 0.000000000000e+00 0.000000000000e+00 1.000000000000e+00 0.000000000000e+00 0.000000000000e+00 1.000000000000e+00 0.000000000000e+00 0.000000000000e+00 1.000000000000e+00 0.000000000000e+00 0.000000000000e+00 1.000000000000e+00 0.000000000000e+00 0.000000000000e+00 1.000000000000e+00 0.000000000000e+00 0.000000000000e+00 1.000000000000e+00 0.000000000000e+00 0.000000000000e+00 1.000000000000e+00 0.000000000000e+00 0.000000000000e+00 1.000000000000e+00 0.000000000000e+00 0.000000000000e+00 1.000000000000e+00 0.000000000000e+00 0.000000000000e+00 1.000000000000e+00 0.000000000000e+00 0.000000000000e+00 1.000000000000e+00 0.000000000000e+00 0.000000000000e+00 1.000000000000e+00 0.000000000000e+00 0.000000000000e+00 1.000000000000e+00 0.000000000000e+00 0.000000000000e+00 1.000000000000e+00 0.000000000000e+00 0.000000000000e+00 1.000000000000e+00 0.000000000000e+00 0.000000000000e+00 1.000000000000e+00 0.000000000000e+00 0.000000000000e+00 1.000000000000e+00 0.000000000000e+00 0.000000000000e+00 1.000000000000e+00 0.000000000000e+00 0.000000000000e+00 1.000000000000e+00 0.000000000000e+00 0.000000000000e+00 1.000000000000e+00 0.000000000000e+00 0.000000000000e+00 1.000000000000e+00 0.000000000000e+00 0.000000000000e+00 1.000000000000e+00 0.000000000000e+00 0.000000000000e+00 1.000000000000e+00 0.000000000000e+00 0.000000000000e+00 1.000000000000e+00 0.000000000000e+00 0.000000000000e+00 1.000000000000e+00 0.000000000000e+00 0.000000000000e+00 1.000000000000e+00 0.000000000000e+00 0.000000000000e+00 1.000000000000e+00 0.000000000000e+00 0.000000000000e+00 1.000000000000e+00 0.000000000000e+00 0.000000000000e+00 1.000000000000e+00 0.000000000000e+00 0.000000000000e+00 1.000000000000e+00 0.000000000000e+00 0.000000000000e+00 1.000000000000e+00 0.000000000000e+00 0.000000000000e+00 1.000000000000e+00 0.000000000000e+00 0.000000000000e+00 1.000000000000e+00 0.000000000000e+00 0.000000000000e+00 1.000000000000e+00 0.000000000000e+00 0.000000000000e+00 1.000000000000e+00 0.000000000000e+00 0.000000000000e+00 1.000000000000e+00 0.000000000000e+00 0.000000000000e+00 1.000000000000e+00 0.000000000000e+00 0.000000000000e+00 1.000000000000e+00 0.000000000000e+00 0.000000000000e+00 1.000000000000e+00 0.000000000000e+00 0.000000000000e+00 1.000000000000e+00 0.000000000000e+00 0.000000000000e+00 1.000000000000e+00 0.000000000000e+00 0.000000000000e+00 1.000000000000e+00 0.000000000000e+00 0.000000000000e+00 1.000000000000e+00 0.000000000000e+00 0.000000000000e+00 1.000000000000e+00 0.000000000000e+00 0.000000000000e+00 1.000000000000e+00 0.000000000000e+00 0.000000000000e+00 1.000000000000e+00 0.000000000000e+00 0.000000000000e+00 1.000000000000e+00 0.000000000000e+00 0.000000000000e+00 1.000000000000e+00 0.000000000000e+00 0.000000000000e+00 1.000000000000e+00 0.000000000000e+00 0.000000000000e+00 1.000000000000e+00 0.000000000000e+00 0.000000000000e+00 1.000000000000e+00 0.000000000000e+00 0.000000000000e+00 1.000000000000e+00 0.000000000000e+00 0.000000000000e+00 1.000000000000e+00 0.000000000000e+00 0.000000000000e+00 1.000000000000e+00 0.000000000000e+00 0.000000000000e+00 1.000000000000e+00 0.000000000000e+00 0.000000000000e+00 1.000000000000e+00 0.000000000000e+00 0.000000000000e+00 1.000000000000e+00 0.000000000000e+00 0.000000000000e+00 1.000000000000e+00 0.000000000000e+00 0.000000000000e+00 1.000000000000e+00 0.000000000000e+00 0.000000000000e+00 1.000000000000e+00 0.000000000000e+00 0.000000000000e+00 1.000000000000e+00 0.000000000000e+00 0.000000000000e+00 1.000000000000e+00 0.000000000000e+00 0.000000000000e+00 1.000000000000e+00 0.000000000000e+00 0.000000000000e+00 1.000000000000e+00 0.000000000000e+00 0.000000000000e+00 1.000000000000e+00 0.000000000000e+00 0.000000000000e+00 1.000000000000e+00 0.000000000000e+00 0.000000000000e+00 1.000000000000e+00 0.000000000000e+00 0.000000000000e+00 1.000000000000e+00 0.000000000000e+00 0.000000000000e+00 1.000000000000e+00 0.000000000000e+00 0.000000000000e+00 1.000000000000e+00 0.000000000000e+00 0.000000000000e+00 1.000000000000e+00 0.000000000000e+00 0.000000000000e+00 1.000000000000e+00 0.000000000000e+00 0.000000000000e+00 1.000000000000e+00 0.000000000000e+00 0.000000000000e+00 1.000000000000e+00 0.000000000000e+00 0.000000000000e+00 1.000000000000e+00 0.000000000000e+00 0.000000000000e+00 1.000000000000e+00 0.000000000000e+00 0.000000000000e+00 1.000000000000e+00 0.000000000000e+00 0.000000000000e+00 1.000000000000e+00 0.000000000000e+00 0.000000000000e+00 1.000000000000e+00 0.000000000000e+00 0.000000000000e+00 1.000000000000e+00 0.000000000000e+00 0.000000000000e+00 1.000000000000e+00 0.000000000000e+00 0.000000000000e+00 1.000000000000e+00 0.000000000000e+00 0.000000000000e+00 1.000000000000e+00 0.000000000000e+00 0.000000000000e+00 1.000000000000e+00 0.000000000000e+00 0.000000000000e+00 1.000000000000e+00 0.000000000000e+00 0.000000000000e+00 1.000000000000e+00 0.000000000000e+00 0.000000000000e+00 1.000000000000e+00 0.000000000000e+00 0.000000000000e+00 1.000000000000e+00 0.000000000000e+00 0.000000000000e+00 1.000000000000e+00 0.000000000000e+00 0.000000000000e+00 1.000000000000e+00 0.000000000000e+00 0.000000000000e+00 1.000000000000e+00 0.000000000000e+00 0.000000000000e+00 1.000000000000e+00 0.000000000000e+00 0.000000000000e+00 1.000000000000e+00 0.000000000000e+00 0.000000000000e+00 1.000000000000e+00 0.000000000000e+00 0.000000000000e+00 1.000000000000e+00 0.000000000000e+00 0.000000000000e+00 1.000000000000e+00 0.000000000000e+00 0.000000000000e+00 1.000000000000e+00 0.000000000000e+00 0.000000000000e+00 1.000000000000e+00 0.000000000000e+00 0.000000000000e+00 1.000000000000e+00 0.000000000000e+00 0.000000000000e+00 1.000000000000e+00 0.000000000000e+00 0.000000000000e+00 1.000000000000e+00 0.000000000000e+00 0.000000000000e+00 1.000000000000e+00 0.000000000000e+00 0.000000000000e+00 1.000000000000e+00 0.000000000000e+00 0.000000000000e+00 1.000000000000e+00 0.000000000000e+00 0.000000000000e+00 1.000000000000e+00 0.000000000000e+00 0.000000000000e+00 1.000000000000e+00 0.000000000000e+00 0.000000000000e+00 1.000000000000e+00 0.000000000000e+00 0.000000000000e+00 1.000000000000e+00 0.000000000000e+00 0.000000000000e+00 1.000000000000e+00 0.000000000000e+00 0.000000000000e+00 1.000000000000e+00 0.000000000000e+00 0.000000000000e+00 1.000000000000e+00 0.000000000000e+00 0.000000000000e+00 1.000000000000e+00 0.000000000000e+00 0.000000000000e+00 1.000000000000e+00 0.000000000000e+00 0.000000000000e+00 1.000000000000e+00 0.000000000000e+00 0.000000000000e+00 1.000000000000e+00 0.000000000000e+00 0.000000000000e+00 1.000000000000e+00 0.000000000000e+00 0.000000000000e+00 1.000000000000e+00 0.000000000000e+00 0.000000000000e+00 1.000000000000e+00 0.000000000000e+00 0.000000000000e+00 1.000000000000e+00 0.000000000000e+00 0.000000000000e+00 1.000000000000e+00 0.000000000000e+00 0.000000000000e+00 1.000000000000e+00 0.000000000000e+00 0.000000000000e+00 1.000000000000e+00 0.000000000000e+00 0.000000000000e+00 1.000000000000e+00 0.000000000000e+00 0.000000000000e+00 1.000000000000e+00 0.000000000000e+00 0.000000000000e+00 1.000000000000e+00 0.000000000000e+00 0.000000000000e+00 1.000000000000e+00 0.000000000000e+00 0.000000000000e+00 1.000000000000e+00 0.000000000000e+00 0.000000000000e+00 1.000000000000e+00 0.000000000000e+00 0.000000000000e+00 1.000000000000e+00 0.000000000000e+00 0.000000000000e+00 1.000000000000e+00 0.000000000000e+00 0.000000000000e+00 1.000000000000e+00 0.000000000000e+00 0.000000000000e+00 1.000000000000e+00 0.000000000000e+00 0.000000000000e+00 1.000000000000e+00 0.000000000000e+00 0.000000000000e+00 1.000000000000e+00 0.000000000000e+00 0.000000000000e+00 1.000000000000e+00 0.000000000000e+00 0.000000000000e+00 1.000000000000e+00 0.000000000000e+00 0.000000000000e+00 1.000000000000e+00 0.000000000000e+00 0.000000000000e+00 1.000000000000e+00 0.000000000000e+00 0.000000000000e+00 1.000000000000e+00 0.000000000000e+00 0.000000000000e+00 1.000000000000e+00 0.000000000000e+00 0.000000000000e+00 1.000000000000e+00 0.000000000000e+00 0.000000000000e+00 1.000000000000e+00 0.000000000000e+00 0.000000000000e+00 1.000000000000e+00 0.000000000000e+00 0.000000000000e+00 1.000000000000e+00 0.000000000000e+00 0.000000000000e+00 1.000000000000e+00 0.000000000000e+00 0.000000000000e+00 1.000000000000e+00 0.000000000000e+00 0.000000000000e+00 1.000000000000e+00 0.000000000000e+00 0.000000000000e+00 1.000000000000e+00 0.000000000000e+00 0.000000000000e+00 1.000000000000e+00 0.000000000000e+00 0.000000000000e+00 1.000000000000e+00 0.000000000000e+00 0.000000000000e+00 1.000000000000e+00 0.000000000000e+00 0.000000000000e+00 1.000000000000e+00 0.000000000000e+00 0.000000000000e+00 1.000000000000e+00 0.000000000000e+00 0.000000000000e+00 1.000000000000e+00 0.000000000000e+00 0.000000000000e+00 1.000000000000e+00 0.000000000000e+00 0.000000000000e+00 1.000000000000e+00 0.000000000000e+00 0.000000000000e+00 1.000000000000e+00 0.000000000000e+00 0.000000000000e+00 1.000000000000e+00 0.000000000000e+00 0.000000000000e+00 1.000000000000e+00 0.000000000000e+00 0.000000000000e+00 1.000000000000e+00 0.000000000000e+00 0.000000000000e+00 1.000000000000e+00 0.000000000000e+00 0.000000000000e+00 1.000000000000e+00 0.000000000000e+00 0.000000000000e+00 1.000000000000e+00 0.000000000000e+00 0.000000000000e+00 1.000000000000e+00 0.000000000000e+00 0.000000000000e+00 1.000000000000e+00 0.000000000000e+00 0.000000000000e+00 1.000000000000e+00 0.000000000000e+00 0.000000000000e+00 1.000000000000e+00 0.000000000000e+00 0.000000000000e+00 1.000000000000e+00 0.000000000000e+00 0.000000000000e+00 1.000000000000e+00 0.000000000000e+00 0.000000000000e+00 1.000000000000e+00 0.000000000000e+00 0.000000000000e+00 1.000000000000e+00 0.000000000000e+00 0.000000000000e+00 1.000000000000e+00 0.000000000000e+00 0.000000000000e+00 1.000000000000e+00 0.000000000000e+00 0.000000000000e+00 1.000000000000e+00 0.000000000000e+00 0.000000000000e+00 1.000000000000e+00 0.000000000000e+00 0.000000000000e+00 1.000000000000e+00 0.000000000000e+00 0.000000000000e+00 1.000000000000e+00 0.000000000000e+00 0.000000000000e+00 1.000000000000e+00 0.000000000000e+00 0.000000000000e+00 1.000000000000e+00 0.000000000000e+00 0.000000000000e+00 1.000000000000e+00 0.000000000000e+00 0.000000000000e+00 1.000000000000e+00 0.000000000000e+00 0.000000000000e+00 1.000000000000e+00 0.000000000000e+00 0.000000000000e+00 1.000000000000e+00 0.000000000000e+00 0.000000000000e+00 1.000000000000e+00 0.000000000000e+00 0.000000000000e+00 1.000000000000e+00 0.000000000000e+00 0.000000000000e+00 1.000000000000e+00 0.000000000000e+00 0.000000000000e+00 1.000000000000e+00 0.000000000000e+00 0.000000000000e+00 1.000000000000e+00 0.000000000000e+00 0.000000000000e+00 1.000000000000e+00 0.000000000000e+00 0.000000000000e+00 1.000000000000e+00 0.000000000000e+00 0.000000000000e+00 1.000000000000e+00 0.000000000000e+00 0.000000000000e+00 1.000000000000e+00 0.000000000000e+00 0.000000000000e+00 1.000000000000e+00 0.000000000000e+00 0.000000000000e+00 1.000000000000e+00 0.000000000000e+00 0.000000000000e+00 1.000000000000e+00 0.000000000000e+00 0.000000000000e+00 1.000000000000e+00 0.000000000000e+00 0.000000000000e+00 1.000000000000e+00 0.000000000000e+00 0.000000000000e+00 1.000000000000e+00 0.000000000000e+00 0.000000000000e+00 1.000000000000e+00 0.000000000000e+00 0.000000000000e+00 1.000000000000e+00 0.000000000000e+00 0.000000000000e+00 1.000000000000e+00 0.000000000000e+00 0.000000000000e+00 1.000000000000e+00 0.000000000000e+00 0.000000000000e+00 1.000000000000e+00 0.000000000000e+00 0.000000000000e+00 1.000000000000e+00 0.000000000000e+00 0.000000000000e+00 1.000000000000e+00 0.000000000000e+00 0.000000000000e+00 1.000000000000e+00 0.000000000000e+00 0.000000000000e+00 1.000000000000e+00 0.000000000000e+00 0.000000000000e+00 1.000000000000e+00 0.000000000000e+00 0.000000000000e+00 1.000000000000e+00 0.000000000000e+00 0.000000000000e+00 1.000000000000e+00 0.000000000000e+00 0.000000000000e+00 1.000000000000e+00 0.000000000000e+00 0.000000000000e+00 1.000000000000e+00 0.000000000000e+00 0.000000000000e+00 1.000000000000e+00 0.000000000000e+00 0.000000000000e+00 1.000000000000e+00 0.000000000000e+00 0.000000000000e+00 1.000000000000e+00 0.000000000000e+00 0.000000000000e+00 1.000000000000e+00 0.000000000000e+00 0.000000000000e+00 1.000000000000e+00 0.000000000000e+00 0.000000000000e+00 1.000000000000e+00 0.000000000000e+00 0.000000000000e+00 1.000000000000e+00 0.000000000000e+00 0.000000000000e+00 1.000000000000e+00 0.000000000000e+00 0.000000000000e+00 1.000000000000e+00 0.000000000000e+00 0.000000000000e+00 1.000000000000e+00 0.000000000000e+00 0.000000000000e+00 1.000000000000e+00 0.000000000000e+00 0.000000000000e+00 1.000000000000e+00 0.000000000000e+00 0.000000000000e+00 1.000000000000e+00 0.000000000000e+00 0.000000000000e+00 1.000000000000e+00 0.000000000000e+00 0.000000000000e+00 1.000000000000e+00 0.000000000000e+00 0.000000000000e+00 1.000000000000e+00 0.000000000000e+00 0.000000000000e+00 1.000000000000e+00 0.000000000000e+00 0.000000000000e+00 1.000000000000e+00 0.000000000000e+00 0.000000000000e+00 1.000000000000e+00 0.000000000000e+00 0.000000000000e+00 1.000000000000e+00 0.000000000000e+00 0.000000000000e+00 1.000000000000e+00 0.000000000000e+00 0.000000000000e+00 1.000000000000e+00 0.000000000000e+00 0.000000000000e+00 1.000000000000e+00 0.000000000000e+00 0.000000000000e+00 1.000000000000e+00 0.000000000000e+00 0.000000000000e+00 1.000000000000e+00 0.000000000000e+00 0.000000000000e+00 1.000000000000e+00 0.000000000000e+00 0.000000000000e+00 1.000000000000e+00 0.000000000000e+00 0.000000000000e+00 1.000000000000e+00 0.000000000000e+00 0.000000000000e+00 1.000000000000e+00 0.000000000000e+00 0.000000000000e+00 1.000000000000e+00 0.000000000000e+00 0.000000000000e+00 1.000000000000e+00 0.000000000000e+00 0.000000000000e+00 1.000000000000e+00 0.000000000000e+00 0.000000000000e+00 1.000000000000e+00 0.000000000000e+00 0.000000000000e+00 1.000000000000e+00 0.000000000000e+00 0.000000000000e+00 1.000000000000e+00 0.000000000000e+00 0.000000000000e+00 1.000000000000e+00 0.000000000000e+00 0.000000000000e+00 1.000000000000e+00 0.000000000000e+00 0.000000000000e+00 1.000000000000e+00 0.000000000000e+00 0.000000000000e+00 1.000000000000e+00 0.000000000000e+00 0.000000000000e+00 1.000000000000e+00 0.000000000000e+00 0.000000000000e+00 1.000000000000e+00 0.000000000000e+00 0.000000000000e+00 1.000000000000e+00 0.000000000000e+00 0.000000000000e+00 1.000000000000e+00 0.000000000000e+00 0.000000000000e+00 1.000000000000e+00 0.000000000000e+00 0.000000000000e+00 1.000000000000e+00 0.000000000000e+00 0.000000000000e+00 1.000000000000e+00 0.000000000000e+00 0.000000000000e+00 1.000000000000e+00 0.000000000000e+00 0.000000000000e+00 1.000000000000e+00 0.000000000000e+00 0.000000000000e+00 1.000000000000e+00 0.000000000000e+00 0.000000000000e+00 1.000000000000e+00 0.000000000000e+00 0.000000000000e+00 1.000000000000e+00 0.000000000000e+00 0.000000000000e+00 1.000000000000e+00 0.000000000000e+00 0.000000000000e+00 1.000000000000e+00 0.000000000000e+00 0.000000000000e+00 1.000000000000e+00 0.000000000000e+00 0.000000000000e+00 1.000000000000e+00 0.000000000000e+00 0.000000000000e+00 1.000000000000e+00 0.000000000000e+00 0.000000000000e+00 1.000000000000e+00 0.000000000000e+00 0.000000000000e+00 1.000000000000e+00 0.000000000000e+00 0.000000000000e+00 1.000000000000e+00 0.000000000000e+00 0.000000000000e+00 1.000000000000e+00 0.000000000000e+00 0.000000000000e+00 1.000000000000e+00 0.000000000000e+00 0.000000000000e+00 1.000000000000e+00 0.000000000000e+00 0.000000000000e+00 1.000000000000e+00 0.000000000000e+00 0.000000000000e+00 1.000000000000e+00 0.000000000000e+00 0.000000000000e+00 1.000000000000e+00 0.000000000000e+00 0.000000000000e+00 1.000000000000e+00 0.000000000000e+00 0.000000000000e+00 1.000000000000e+00 0.000000000000e+00 0.000000000000e+00 1.000000000000e+00 0.000000000000e+00 0.000000000000e+00 1.000000000000e+00 0.000000000000e+00 0.000000000000e+00 1.000000000000e+00 0.000000000000e+00 0.000000000000e+00 1.000000000000e+00 0.000000000000e+00 0.000000000000e+00 1.000000000000e+00 0.000000000000e+00 0.000000000000e+00 1.000000000000e+00 0.000000000000e+00 0.000000000000e+00 1.000000000000e+00 0.000000000000e+00 0.000000000000e+00 1.000000000000e+00 0.000000000000e+00 0.000000000000e+00 1.000000000000e+00 0.000000000000e+00 0.000000000000e+00 1.000000000000e+00 0.000000000000e+00 0.000000000000e+00 1.000000000000e+00 0.000000000000e+00 0.000000000000e+00 1.000000000000e+00 0.000000000000e+00 0.000000000000e+00 1.000000000000e+00 0.000000000000e+00 0.000000000000e+00 1.000000000000e+00 0.000000000000e+00 0.000000000000e+00 1.000000000000e+00 0.000000000000e+00 0.000000000000e+00 1.000000000000e+00 0.000000000000e+00 0.000000000000e+00 1.000000000000e+00 0.000000000000e+00 0.000000000000e+00 1.000000000000e+00 0.000000000000e+00 0.000000000000e+00 1.000000000000e+00 0.000000000000e+00 0.000000000000e+00 1.000000000000e+00 0.000000000000e+00 0.000000000000e+00 1.000000000000e+00 0.000000000000e+00 0.000000000000e+00 1.000000000000e+00 0.000000000000e+00 0.000000000000e+00 1.000000000000e+00 0.000000000000e+00 0.000000000000e+00 1.000000000000e+00 0.000000000000e+00 0.000000000000e+00 1.000000000000e+00 0.000000000000e+00 0.000000000000e+00 1.000000000000e+00 0.000000000000e+00 0.000000000000e+00 1.000000000000e+00 0.000000000000e+00 0.000000000000e+00 1.000000000000e+00 0.000000000000e+00 0.000000000000e+00 1.000000000000e+00 0.000000000000e+00 0.000000000000e+00 1.000000000000e+00 0.000000000000e+00 0.000000000000e+00 1.000000000000e+00 0.000000000000e+00 0.000000000000e+00 1.000000000000e+00 0.000000000000e+00 0.000000000000e+00 1.000000000000e+00 0.000000000000e+00 0.000000000000e+00 1.000000000000e+00 0.000000000000e+00 0.000000000000e+00 1.000000000000e+00 0.000000000000e+00 0.000000000000e+00 1.000000000000e+00 0.000000000000e+00 0.000000000000e+00 1.000000000000e+00 0.000000000000e+00 0.000000000000e+00 1.000000000000e+00 0.000000000000e+00 0.000000000000e+00 1.000000000000e+00 0.000000000000e+00 0.000000000000e+00 1.000000000000e+00 0.000000000000e+00 0.000000000000e+00 1.000000000000e+00 0.000000000000e+00 0.000000000000e+00 1.000000000000e+00 0.000000000000e+00 0.000000000000e+00 1.000000000000e+00 0.000000000000e+00 0.000000000000e+00 1.000000000000e+00 0.000000000000e+00 0.000000000000e+00 1.000000000000e+00 0.000000000000e+00 0.000000000000e+00 1.000000000000e+00 0.000000000000e+00 0.000000000000e+00 1.000000000000e+00 0.000000000000e+00 0.000000000000e+00 1.000000000000e+00 0.000000000000e+00 0.000000000000e+00 1.000000000000e+00 0.000000000000e+00 0.000000000000e+00 1.000000000000e+00 0.000000000000e+00 0.000000000000e+00 1.000000000000e+00 0.000000000000e+00 0.000000000000e+00 1.000000000000e+00 0.000000000000e+00 0.000000000000e+00 1.000000000000e+00 0.000000000000e+00 0.000000000000e+00 1.000000000000e+00 0.000000000000e+00 0.000000000000e+00 1.000000000000e+00 0.000000000000e+00 0.000000000000e+00 1.000000000000e+00 0.000000000000e+00 0.000000000000e+00 1.000000000000e+00 9.949082249459e-01 -1.007850382496e-01 0.000000000000e+00 9.939886902678e-01 -1.094828005655e-01 0.000000000000e+00 0.000000000000e+00 0.000000000000e+00 1.000000000000e+00 0.000000000000e+00 0.000000000000e+00 1.000000000000e+00 0.000000000000e+00 0.000000000000e+00 1.000000000000e+00 0.000000000000e+00 0.000000000000e+00 1.000000000000e+00 0.000000000000e+00 0.000000000000e+00 1.000000000000e+00 0.000000000000e+00 0.000000000000e+00 1.000000000000e+00 9.999966536946e-01 -2.587005902402e-03 0.000000000000e+00 9.999977865100e-01 -2.104037798618e-03 0.000000000000e+00 9.999985204739e-01 -1.720188951297e-03 0.000000000000e+00 9.999989901044e-01 -1.421193204262e-03 0.000000000000e+00 9.999992890460e-01 -1.192437597533e-03 0.000000000000e+00 9.999994783411e-01 -1.021429196839e-03 0.000000000000e+00 9.999995964614e-01 -8.983746771587e-04 0.000000000000e+00 9.999996669762e-01 -8.161173541815e-04 0.000000000000e+00 9.999997036234e-01 -7.699046142607e-04 0.000000000000e+00 9.999997133583e-01 -7.571548173450e-04 0.000000000000e+00 9.999996979087e-01 -7.772917498184e-04 0.000000000000e+00 9.999996541786e-01 -8.316506350314e-04 0.000000000000e+00 9.999995736160e-01 -9.234542335003e-04 0.000000000000e+00 9.999994405074e-01 -1.057820806205e-03 0.000000000000e+00 9.999992290331e-01 -1.241746065520e-03 0.000000000000e+00 9.999988990238e-01 -1.483897267646e-03 0.000000000000e+00 9.999983909395e-01 -1.793911460386e-03 0.000000000000e+00 9.999976227831e-01 -2.180465143529e-03 0.000000000000e+00 0.000000000000e+00 0.000000000000e+00 1.000000000000e+00 0.000000000000e+00 0.000000000000e+00 1.000000000000e+00 0.000000000000e+00 0.000000000000e+00 1.000000000000e+00 0.000000000000e+00 0.000000000000e+00 1.000000000000e+00 0.000000000000e+00 0.000000000000e+00 1.000000000000e+00 0.000000000000e+00 0.000000000000e+00 1.000000000000e+00 0.000000000000e+00 0.000000000000e+00 1.000000000000e+00 
        </DataArray>
        <DataArray type="Float64" Name="NORMSTRESS_3" NumberOfComponents="3" format="ascii">
          -8.598742799112e-04 9.999996303080e-01 0.000000000000e+00 -5.942425823157e-04 9.999998234379e-01 0.000000000000e+00 -4.420850633402e-04 9.999999022804e-01 0.000000000000e+00 -3.403153466578e-04 9.999999420927e-01 0.000000000000e+00 -2.695462512543e-04 9.999999636724e-01 0.000000000000e+00 -2.195844273649e-04 9.999999758913e-01 0.000000000000e+00 -1.840453944385e-04 9.999999830636e-01 0.000000000000e+00 -1.586225368635e-04 9.999999874194e-01 0.000000000000e+00 -1.403246638294e-04 9.999999901545e-01 0.000000000000e+00 -1.270451489591e-04 9.999999919298e-01 0.000000000000e+00 -1.172837015776e-04 9.999999931223e-01 0.000000000000e+00 -1.099569635759e-04 9.999999939547e-01 0.000000000000e+00 -1.042661608965e-04 9.999999945643e-01 0.000000000000e+00 -9.960117990847e-05 9.999999950398e-01 0.000000000000e+00 -9.547053297585e-05 9.999999954427e-01 0.000000000000e+00 -9.144643220682e-05 9.999999958188e-01 0.000000000000e+00 -8.711911017716e-05 9.999999962051e-01 0.000000000000e+00 -8.205569886882e-05 9.999999966334e-01 0.000000000000e+00 -7.575790885051e-05 9.999999971304e-01 0.000000000000e+00 -6.761697046825e-05 9.999999977140e-01 0.000000000000e+00 -5.685842788693e-05 9.999999983836e-01 0.000000000000e+00 -4.247638760818e-05 9.999999990979e-01 0.000000000000e+00 -2.314864226561e-05 9.999999997321e-01 0.000000000000e+00 2.870229053199e-06 9.999999999959e-01 0.000000000000e+00 3.788205828641e-05 9.999999992825e-01 0.000000000000e+00 8.489816223144e-05 9.999999963962e-01 0.000000000000e+00 1.477715819324e-04 9.999999890818e-01 0.000000000000e+00 2.311341791812e-04 9.999999732885e-01 0.000000000000e+00 3.395289713299e-04 9.999999423600e-01 0.000000000000e+00 4.736459452916e-04 9.999998878298e-01 0.000000000000e+00 6.114489723139e-04 9.999998130651e-01 0.000000000000e+00 -9.795174789629e-02 9.951911650955e-01 0.000000000000e+00 -9.800489270883e-02 9.951859328815e-01 0.000000000000e+00 -9.801417763149e-02 9.951850184680e-01 0.000000000000e+00 -9.801628833390e-02 9.951848105861e-01 0.000000000000e+00 -9.801680216436e-02 9.951847599785e-01 0.000000000000e+00 -9.801695118416e-02 9.951847453014e-01 0.000000000000e+00 -9.801701213471e-02 9.951847392983e-01 0.000000000000e+00 -9.801704857543e-02 9.951847357092e-01 0.000000000000e+00 -9.801707601984e-02 9.951847330061e-01 0.000000000000e+00 -9.801709821045e-02 9.951847308206e-01 0.000000000000e+00 -9.801711671578e-02 9.951847289980e-01 0.000000000000e+00 -9.801713189569e-02 9.951847275029e-01 0.000000000000e+00 -9.801714414651e-02 9.951847262963e-01 0.000000000000e+00 -9.801715361476e-02 9.951847253637e-01 0.000000000000e+00 -9.801716040899e-02 9.951847246945e-01 0.000000000000e+00 -9.801716472331e-02 9.951847242696e-01 0.000000000000e+00 -9.801716660811e-02 9.951847240840e-01 0.000000000000e+00 -9.801716624495e-02 9.951847241198e-01 0.000000000000e+00 -9.801716362738e-02 9.951847243776e-01 0.000000000000e+00 -9.801715896727e-02 9.951847248365e-01 0.000000000000e+00 -9.801715239385e-02 9.951847254840e-01 0.000000000000e+00 -9.801714377660e-02 9.951847263327e-01 0.000000000000e+00 -9.801713153318e-02 9.951847275386e-01 0.000000000000e+00 -9.801711071906e-02 9.951847295886e-01 0.000000000000e+00 -9.801706088380e-02 9.951847344969e-01 0.000000000000e+00 -9.801690967639e-02 9.951847493895e-01 0.000000000000e+00 -9.801640143344e-02 9.951847994468e-01 0.000000000000e+00 -9.801465267528e-02 9.951849716816e-01 0.000000000000e+00 -9.800863544683e-02 9.951855642933e-01 0.000000000000e+00 -9.798808158947e-02 9.951875882799e-01 0.000000000000e+00 -9.791143265477e-02 9.951951323009e-01 0.000000000000e+00 -1.949601796438e-01 9.808111583548e-01 0.000000000000e+00 -1.950659486492e-01 9.807901282525e-01 0.000000000000e+00 -1.950844255383e-01 9.807864532672e-01 0.000000000000e+00 -1.950886263003e-01 9.807856177005e-01 0.000000000000e+00 -1.950896496707e-01 9.807854141408e-01 0.000000000000e+00 -1.950899468749e-01 9.807853550234e-01 0.000000000000e+00 -1.950900685409e-01 9.807853308226e-01 0.000000000000e+00 -1.950901415125e-01 9.807853163076e-01 0.000000000000e+00 -1.950901963430e-01 9.807853054012e-01 0.000000000000e+00 -1.950902408746e-01 9.807852965433e-01 0.000000000000e+00 -1.950902776723e-01 9.807852892238e-01 0.000000000000e+00 -1.950903080496e-01 9.807852831814e-01 0.000000000000e+00 -1.950903326490e-01 9.807852782882e-01 0.000000000000e+00 -1.950903515057e-01 9.807852745374e-01 0.000000000000e+00 -1.950903650559e-01 9.807852718421e-01 0.000000000000e+00 -1.950903738428e-01 9.807852700943e-01 0.000000000000e+00 -1.950903777381e-01 9.807852693194e-01 0.000000000000e+00 -1.950903769401e-01 9.807852694782e-01 0.000000000000e+00 -1.950903717942e-01 9.807852705018e-01 0.000000000000e+00 -1.950903627259e-01 9.807852723055e-01 0.000000000000e+00 -1.950903495937e-01 9.807852749177e-01 0.000000000000e+00 -1.950903320430e-01 9.807852784088e-01 0.000000000000e+00 -1.950903079444e-01 9.807852832023e-01 0.000000000000e+00 -1.950902662134e-01 9.807852915031e-01 0.000000000000e+00 -1.950901666452e-01 9.807853113084e-01 0.000000000000e+00 -1.950898647994e-01 9.807853713492e-01 0.000000000000e+00 -1.950888530931e-01 9.807855725890e-01 0.000000000000e+00 -1.950853722872e-01 9.807862649525e-01 0.000000000000e+00 -1.950733970785e-01 9.807886468308e-01 0.000000000000e+00 -1.950324915935e-01 9.807967818171e-01 0.000000000000e+00 -1.948799329004e-01 9.808271059431e-01 0.000000000000e+00 -2.900910650621e-01 9.569990459615e-01 0.000000000000e+00 -2.902484174799e-01 9.569513342644e-01 0.000000000000e+00 -2.902758990724e-01 9.569429985207e-01 0.000000000000e+00 -2.902821473747e-01 9.569411031592e-01 0.000000000000e+00 -2.902836701271e-01 9.569406412404e-01 0.000000000000e+00 -2.902841128953e-01 9.569405069285e-01 0.000000000000e+00 -2.902842941783e-01 9.569404519370e-01 0.000000000000e+00 -2.902844028914e-01 9.569404189593e-01 0.000000000000e+00 -2.902844842946e-01 9.569403942659e-01 0.000000000000e+00 -2.902845505569e-01 9.569403741655e-01 0.000000000000e+00 -2.902846052509e-01 9.569403575742e-01 0.000000000000e+00 -2.902846502194e-01 9.569403439332e-01 0.000000000000e+00 -2.902846864065e-01 9.569403329560e-01 0.000000000000e+00 -2.902847145900e-01 9.569403244066e-01 0.000000000000e+00 -2.902847347908e-01 9.569403182787e-01 0.000000000000e+00 -2.902847476041e-01 9.569403143919e-01 0.000000000000e+00 -2.902847534396e-01 9.569403126217e-01 0.000000000000e+00 -2.902847524634e-01 9.569403129178e-01 0.000000000000e+00 -2.902847448972e-01 9.569403152130e-01 0.000000000000e+00 -2.902847312624e-01 9.569403193491e-01 0.000000000000e+00 -2.902847119663e-01 9.569403252025e-01 0.000000000000e+00 -2.902846860462e-01 9.569403330653e-01 0.000000000000e+00 -2.902846499466e-01 9.569403440160e-01 0.000000000000e+00 -2.902845874618e-01 9.569403629705e-01 0.000000000000e+00 -2.902844392653e-01 9.569404079254e-01 0.000000000000e+00 -2.902839896678e-01 9.569405443091e-01 0.000000000000e+00 -2.902824839525e-01 9.569410010603e-01 0.000000000000e+00 -2.902773058115e-01 9.569425718040e-01 0.000000000000e+00 -2.902594935715e-01 9.569479747570e-01 0.000000000000e+00 -2.901986432392e-01 9.569664296422e-01 0.000000000000e+00 -2.899716507536e-01 9.570352353802e-01 0.000000000000e+00 -3.824282590191e-01 9.239851874914e-01 0.000000000000e+00 -3.826356419733e-01 9.238993264916e-01 0.000000000000e+00 -3.826718467381e-01 9.238843313500e-01 0.000000000000e+00 -3.826800778721e-01 9.238809219807e-01 0.000000000000e+00 -3.826820841017e-01 9.238800909791e-01 0.000000000000e+00 -3.826826669595e-01 9.238798495523e-01 0.000000000000e+00 -3.826829053943e-01 9.238797507896e-01 0.000000000000e+00 -3.826830478925e-01 9.238796917650e-01 0.000000000000e+00 -3.826831540829e-01 9.238796477795e-01 0.000000000000e+00 -3.826832401812e-01 9.238796121164e-01 0.000000000000e+00 -3.826833113066e-01 9.238795826553e-01 0.000000000000e+00 -3.826833697529e-01 9.238795584461e-01 0.000000000000e+00 -3.826834165941e-01 9.238795390438e-01 0.000000000000e+00 -3.826834529886e-01 9.238795239688e-01 0.000000000000e+00 -3.826834793723e-01 9.238795130403e-01 0.000000000000e+00 -3.826834961591e-01 9.238795060869e-01 0.000000000000e+00 -3.826835037831e-01 9.238795029290e-01 0.000000000000e+00 -3.826835026007e-01 9.238795034187e-01 0.000000000000e+00 -3.826834932662e-01 9.238795072852e-01 0.000000000000e+00 -3.826834759003e-01 9.238795144784e-01 0.000000000000e+00 -3.826834509486e-01 9.238795248137e-01 0.000000000000e+00 -3.826834175099e-01 9.238795386645e-01 0.000000000000e+00 -3.826833706006e-01 9.238795580950e-01 0.000000000000e+00 -3.826832889099e-01 9.238795919324e-01 0.000000000000e+00 -3.826830936005e-01 9.238796728321e-01 0.000000000000e+00 -3.826825013452e-01 9.238799181518e-01 0.000000000000e+00 -3.826805172883e-01 9.238807399702e-01 0.000000000000e+00 -3.826736952660e-01 9.238835656897e-01 0.000000000000e+00 -3.826502265560e-01 9.238932861087e-01 0.000000000000e+00 -3.825700397757e-01 9.239264931076e-01 0.000000000000e+00 -3.822708125120e-01 9.240503373201e-01 0.000000000000e+00 -4.710825269649e-01 8.820891410670e-01 0.000000000000e+00 -4.713378837281e-01 8.819527194599e-01 0.000000000000e+00 -4.713824356275e-01 8.819289083491e-01 0.000000000000e+00 -4.713925616822e-01 8.819234959965e-01 0.000000000000e+00 -4.713950284595e-01 8.819221774872e-01 0.000000000000e+00 -4.713957435705e-01 8.819217952538e-01 0.000000000000e+00 -4.713960344357e-01 8.819216397834e-01 0.000000000000e+00 -4.713962067776e-01 8.819215476649e-01 0.000000000000e+00 -4.713963345496e-01 8.819214793695e-01 0.000000000000e+00 -4.713964374463e-01 8.819214243701e-01 0.000000000000e+00 -4.713965222065e-01 8.819213790648e-01 0.000000000000e+00 -4.713965917999e-01 8.819213418664e-01 0.000000000000e+00 -4.713966475765e-01 8.819213120532e-01 0.000000000000e+00 -4.713966907729e-01 8.819212889642e-01 0.000000000000e+00 -4.713967220918e-01 8.819212722239e-01 0.000000000000e+00 -4.713967423111e-01 8.819212614165e-01 0.000000000000e+00 -4.713967517377e-01 8.819212563779e-01 0.000000000000e+00 -4.713967507813e-01 8.819212568891e-01 0.000000000000e+00 -4.713967401947e-01 8.819212625477e-01 0.000000000000e+00 -4.713967201974e-01 8.819212732365e-01 0.000000000000e+00 -4.713966912044e-01 8.819212887336e-01 0.000000000000e+00 -4.713966519757e-01 8.819213097018e-01 0.000000000000e+00 -4.713965962566e-01 8.819213394843e-01 0.000000000000e+00 -4.713964977939e-01 8.819213921137e-01 0.000000000000e+00 -4.713962589843e-01 8.819215197599e-01 0.000000000000e+00 -4.713955317198e-01 8.819219084900e-01 0.000000000000e+00 -4.713930914131e-01 8.819232128525e-01 0.000000000000e+00 -4.713846975939e-01 8.819276993463e-01 0.000000000000e+00 -4.713558146142e-01 8.819431365056e-01 0.000000000000e+00 -4.712570999131e-01 8.819958876217e-01 0.000000000000e+00 -4.708885426367e-01 8.821927116076e-01 0.000000000000e+00 -5.552001132445e-01 8.317167993093e-01 0.000000000000e+00 -5.555008946529e-01 8.315159385363e-01 0.000000000000e+00 -5.555533238866e-01 8.314809103753e-01 0.000000000000e+00 -5.555652347994e-01 8.314729519848e-01 0.000000000000e+00 -5.555681332201e-01 8.314710153398e-01 0.000000000000e+00 -5.555689704261e-01 8.314704559391e-01 0.000000000000e+00 -5.555693074263e-01 8.314702307634e-01 0.000000000000e+00 -5.555695046951e-01 8.314700989529e-01 0.000000000000e+00 -5.555696493701e-01 8.314700022844e-01 0.000000000000e+00 -5.555697652190e-01 8.314699248767e-01 0.000000000000e+00 -5.555698600530e-01 8.314698615107e-01 0.000000000000e+00 -5.555699375824e-01 8.314698097073e-01 0.000000000000e+00 -5.555699996537e-01 8.314697682326e-01 0.000000000000e+00 -5.555700477560e-01 8.314697360917e-01 0.000000000000e+00 -5.555700827924e-01 8.314697126812e-01 0.000000000000e+00 -5.555701055529e-01 8.314696974731e-01 0.000000000000e+00 -5.555701164472e-01 8.314696901937e-01 0.000000000000e+00 -5.555701161430e-01 8.314696903970e-01 0.000000000000e+00 -5.555701052520e-01 8.314696976741e-01 0.000000000000e+00 -5.555700841513e-01 8.314697117731e-01 0.000000000000e+00 -5.555700528977e-01 8.314697326561e-01 0.000000000000e+00 -5.555700101356e-01 8.314697612289e-01 0.000000000000e+00 -5.555699483209e-01 8.314698025321e-01 0.000000000000e+00 -5.555698361041e-01 8.314698775129e-01 0.000000000000e+00 -5.555695586991e-01 8.314700628687e-01 0.000000000000e+00 -5.555687057276e-01 8.314706328044e-01 0.000000000000e+00 -5.555658370425e-01 8.314725495838e-01 0.000000000000e+00 -5.555559614172e-01 8.314791481053e-01 0.000000000000e+00 -5.555219665639e-01 8.315018608908e-01 0.000000000000e+00 -5.554057288289e-01 8.315795069529e-01 0.000000000000e+00 -5.549714268786e-01 8.318694100328e-01 0.000000000000e+00 -6.339709712030e-01 7.733568436834e-01 0.000000000000e+00 -6.343141480110e-01 7.730753919464e-01 0.000000000000e+00 -6.343738920527e-01 7.730263676498e-01 0.000000000000e+00 -6.343874581651e-01 7.730152345995e-01 0.000000000000e+00 -6.343907560259e-01 7.730125281449e-01 0.000000000000e+00 -6.343917048233e-01 7.730117494912e-01 0.000000000000e+00 -6.343920825636e-01 7.730114394889e-01 0.000000000000e+00 -6.343923004645e-01 7.730112606627e-01 0.000000000000e+00 -6.343924578580e-01 7.730111314935e-01 0.000000000000e+00 -6.343925828287e-01 7.730110289329e-01 0.000000000000e+00 -6.343926843347e-01 7.730109456292e-01 0.000000000000e+00 -6.343927668828e-01 7.730108778839e-01 0.000000000000e+00 -6.343928327478e-01 7.730108238300e-01 0.000000000000e+00 -6.343928838213e-01 7.730107819150e-01 0.000000000000e+00 -6.343929212238e-01 7.730107512196e-01 0.000000000000e+00 -6.343929456047e-01 7.730107312107e-01 0.000000000000e+00 -6.343929576646e-01 7.730107213134e-01 0.000000000000e+00 -6.343929583406e-01 7.730107207587e-01 0.000000000000e+00 -6.343929478999e-01 7.730107293272e-01 0.000000000000e+00 -6.343929268390e-01 7.730107466113e-01 0.000000000000e+00 -6.343928947901e-01 7.730107729132e-01 0.000000000000e+00 -6.343928503277e-01 7.730108094025e-01 0.000000000000e+00 -6.343927843551e-01 7.730108635447e-01 0.000000000000e+00 -6.343926608104e-01 7.730109649351e-01 0.000000000000e+00 -6.343923483767e-01 7.730112213423e-01 0.000000000000e+00 -6.343913791455e-01 7.730120167668e-01 0.000000000000e+00 -6.343881125526e-01 7.730146975653e-01 0.000000000000e+00 -6.343768610422e-01 7.730239311782e-01 0.000000000000e+00 -6.343381134005e-01 7.730557275433e-01 0.000000000000e+00 -6.342055503232e-01 7.731644844011e-01 0.000000000000e+00 -6.337097367691e-01 7.735709208107e-01 0.000000000000e+00 -7.066365800187e-01 7.075766698948e-01 0.000000000000e+00 -7.070186479616e-01 7.071949034280e-01 0.000000000000e+00 -7.070850515476e-01 7.071285101577e-01 0.000000000000e+00 -7.071001261037e-01 7.071134362068e-01 0.000000000000e+00 -7.071037919650e-01 7.071097703955e-01 0.000000000000e+00 -7.071048458463e-01 7.071087165215e-01 0.000000000000e+00 -7.071052627464e-01 7.071082996235e-01 0.000000000000e+00 -7.071054998371e-01 7.071080625336e-01 0.000000000000e+00 -7.071056688387e-01 7.071078935327e-01 0.000000000000e+00 -7.071058011867e-01 7.071077611851e-01 0.000000000000e+00 -7.071059078616e-01 7.071076545104e-01 0.000000000000e+00 -7.071059938004e-01 7.071075685718e-01 0.000000000000e+00 -7.071060623499e-01 7.071075000224e-01 0.000000000000e+00 -7.071061151402e-01 7.071074472323e-01 0.000000000000e+00 -7.071061539421e-01 7.071074084305e-01 0.000000000000e+00 -7.071061794395e-01 7.071073829331e-01 0.000000000000e+00 -7.071061926376e-01 7.071073697350e-01 0.000000000000e+00 -7.071061940304e-01 7.071073683422e-01 0.000000000000e+00 -7.071061840465e-01 7.071073783260e-01 0.000000000000e+00 -7.071061629676e-01 7.071073994049e-01 0.000000000000e+00 -7.071061304643e-01 7.071074319082e-01 0.000000000000e+00 -7.071060843279e-01 7.071074780445e-01 0.000000000000e+00 -7.071060131617e-01 7.071075492105e-01 0.000000000000e+00 -7.071058774364e-01 7.071076849356e-01 0.000000000000e+00 -7.071055295544e-01 7.071080328165e-01 0.000000000000e+00 -7.071044501033e-01 7.071091122621e-01 0.000000000000e+00 -7.071008152395e-01 7.071127470832e-01 0.000000000000e+00 -7.070883049226e-01 7.071252569677e-01 0.000000000000e+00 -7.070452180221e-01 7.071683389916e-01 0.000000000000e+00 -7.068977187425e-01 7.073157818377e-01 0.000000000000e+00 -7.063452390932e-01 7.078675039938e-01 0.000000000000e+00 7.724972830775e-01 -6.350180687492e-01 0.000000000000e+00 7.729142429804e-01 -6.345104987295e-01 0.000000000000e+00 7.729865479441e-01 -6.344224118814e-01 0.000000000000e+00 7.730029709931e-01 -6.344024013478e-01 0.000000000000e+00 7.730069777082e-01 -6.343975192373e-01 0.000000000000e+00 7.730081373228e-01 -6.343961062559e-01 0.000000000000e+00 7.730085989927e-01 -6.343955437134e-01 0.000000000000e+00 7.730088599465e-01 -6.343952257419e-01 0.000000000000e+00 7.730090443203e-01 -6.343950010829e-01 0.000000000000e+00 7.730091864353e-01 -6.343948279161e-01 0.000000000000e+00 7.730092999169e-01 -6.343946896388e-01 0.000000000000e+00 7.730093902056e-01 -6.343945796221e-01 0.000000000000e+00 7.730094622508e-01 -6.343944918352e-01 0.000000000000e+00 7.730095173023e-01 -6.343944247549e-01 0.000000000000e+00 7.730095579221e-01 -6.343943752597e-01 0.000000000000e+00 7.730095844868e-01 -6.343943428906e-01 0.000000000000e+00 7.730095986300e-01 -6.343943256571e-01 0.000000000000e+00 7.730096001908e-01 -6.343943237553e-01 0.000000000000e+00 7.730095898231e-01 -6.343943363882e-01 0.000000000000e+00 7.730095673500e-01 -6.343943637718e-01 0.000000000000e+00 7.730095317979e-01 -6.343944070920e-01 0.000000000000e+00 7.730094801332e-01 -6.343944700454e-01 0.000000000000e+00 7.730093987075e-01 -6.343945692626e-01 0.000000000000e+00 7.730092437142e-01 -6.343947581218e-01 0.000000000000e+00 7.730088531663e-01 -6.343952340036e-01 0.000000000000e+00 7.730076619245e-01 -6.343966855257e-01 0.000000000000e+00 7.730036834085e-01 -6.344015332870e-01 0.000000000000e+00 7.729900385623e-01 -6.344181588538e-01 0.000000000000e+00 7.729430802502e-01 -6.344753696507e-01 0.000000000000e+00 7.727822384837e-01 -6.346712628472e-01 0.000000000000e+00 7.721785231198e-01 -6.354056408567e-01 0.000000000000e+00 8.309191056364e-01 -5.563932421305e-01 0.000000000000e+00 8.313663724546e-01 -5.557247113019e-01 0.000000000000e+00 8.314436845925e-01 -5.556090346199e-01 0.000000000000e+00 8.314612862276e-01 -5.555826936692e-01 0.000000000000e+00 8.314656149776e-01 -5.555762153926e-01 0.000000000000e+00 8.314668899098e-01 -5.555743073467e-01 0.000000000000e+00 8.314674105113e-01 -5.555735282189e-01 0.000000000000e+00 8.314677086466e-01 -5.555730820314e-01 0.000000000000e+00 8.314679189091e-01 -5.555727673537e-01 0.000000000000e+00 8.314680787062e-01 -5.555725282019e-01 0.000000000000e+00 8.314682050446e-01 -5.555723391241e-01 0.000000000000e+00 8.314683045211e-01 -5.555721902478e-01 0.000000000000e+00 8.314683831572e-01 -5.555720725612e-01 0.000000000000e+00 8.314684431607e-01 -5.555719827600e-01 0.000000000000e+00 8.314684875431e-01 -5.555719163374e-01 0.000000000000e+00 8.314685166359e-01 -5.555718727971e-01 0.000000000000e+00 8.314685320862e-01 -5.555718496742e-01 0.000000000000e+00 8.314685335537e-01 -5.555718474779e-01 0.000000000000e+00 8.314685210480e-01 -5.555718661940e-01 0.000000000000e+00 8.314684937757e-01 -5.555719070097e-01 0.000000000000e+00 8.314684493146e-01 -5.555719735502e-01 0.000000000000e+00 8.314683833901e-01 -5.555720722126e-01 0.000000000000e+00 8.314682798641e-01 -5.555722271495e-01 0.000000000000e+00 8.314680908173e-01 -5.555725100764e-01 0.000000000000e+00 8.314676415024e-01 -5.555731825192e-01 0.000000000000e+00 8.314663259116e-01 -5.555751514197e-01 0.000000000000e+00 8.314620176083e-01 -5.555815991146e-01 0.000000000000e+00 8.314473617423e-01 -5.556035318928e-01 0.000000000000e+00 8.313970622165e-01 -5.556787965523e-01 0.000000000000e+00 8.312247318447e-01 -5.559365477909e-01 0.000000000000e+00 8.305757972998e-01 -5.569055978708e-01 0.000000000000e+00 8.813400706998e-01 -4.724824650490e-01 0.000000000000e+00 8.818121950032e-01 -4.716007344604e-01 0.000000000000e+00 8.818933704734e-01 -4.714489188821e-01 0.000000000000e+00 8.819119862729e-01 -4.714140944734e-01 0.000000000000e+00 8.819166506282e-01 -4.714053683877e-01 0.000000000000e+00 8.819180651766e-01 -4.714027220066e-01 0.000000000000e+00 8.819186636734e-01 -4.714016023144e-01 0.000000000000e+00 8.819190180963e-01 -4.714009392439e-01 0.000000000000e+00 8.819192727627e-01 -4.714004628017e-01 0.000000000000e+00 8.819194678236e-01 -4.714000978720e-01 0.000000000000e+00 8.819196206988e-01 -4.713998118652e-01 0.000000000000e+00 8.819197402752e-01 -4.713995881553e-01 0.000000000000e+00 8.819198337703e-01 -4.713994132396e-01 0.000000000000e+00 8.819199051716e-01 -4.713992796581e-01 0.000000000000e+00 8.819199578764e-01 -4.713991810550e-01 0.000000000000e+00 8.819199931663e-01 -4.713991150326e-01 0.000000000000e+00 8.819200117626e-01 -4.713990802416e-01 0.000000000000e+00 8.819200128517e-01 -4.713990782041e-01 0.000000000000e+00 8.819199948754e-01 -4.713991118352e-01 0.000000000000e+00 8.819199557813e-01 -4.713991849747e-01 0.000000000000e+00 8.819198920142e-01 -4.713993042736e-01 0.000000000000e+00 8.819197976178e-01 -4.713994808757e-01 0.000000000000e+00 8.819196559063e-01 -4.713997459970e-01 0.000000000000e+00 8.819194131885e-01 -4.714002000861e-01 0.000000000000e+00 8.819188799989e-01 -4.714011976030e-01 0.000000000000e+00 8.819174040128e-01 -4.714039589347e-01 0.000000000000e+00 8.819127382777e-01 -4.714126876352e-01 0.000000000000e+00 8.818971667258e-01 -4.714418175353e-01 0.000000000000e+00 8.818441613088e-01 -4.715409580998e-01 0.000000000000e+00 8.816626371644e-01 -4.718802753118e-01 0.000000000000e+00 8.809751564830e-01 -4.731625235158e-01 0.000000000000e+00 9.232762283029e-01 -3.841367025561e-01 0.000000000000e+00 9.237661438274e-01 -3.829570622383e-01 0.000000000000e+00 9.238493340282e-01 -3.827563298180e-01 0.000000000000e+00 9.238688035623e-01 -3.827093333124e-01 0.000000000000e+00 9.238740003862e-01 -3.826967878234e-01 0.000000000000e+00 9.238756970981e-01 -3.826926917404e-01 0.000000000000e+00 9.238764248311e-01 -3.826909348825e-01 0.000000000000e+00 9.238768453674e-01 -3.826899196399e-01 0.000000000000e+00 9.238771489377e-01 -3.826891867701e-01 0.000000000000e+00 9.238773924446e-01 -3.826885989022e-01 0.000000000000e+00 9.238775924912e-01 -3.826881159542e-01 0.000000000000e+00 9.238777554895e-01 -3.826877224471e-01 0.000000000000e+00 9.238778841592e-01 -3.826874118149e-01 0.000000000000e+00 9.238779820175e-01 -3.826871755668e-01 0.000000000000e+00 9.238780509280e-01 -3.826870092040e-01 0.000000000000e+00 9.238780932332e-01 -3.826869070712e-01 0.000000000000e+00 9.238781092797e-01 -3.826868683320e-01 0.000000000000e+00 9.238780998450e-01 -3.826868911091e-01 0.000000000000e+00 9.238780645807e-01 -3.826869762438e-01 0.000000000000e+00 9.238780036736e-01 -3.826871232850e-01 0.000000000000e+00 9.238779159618e-01 -3.826873350374e-01 0.000000000000e+00 9.238777941372e-01 -3.826876291443e-01 0.000000000000e+00 9.238776119127e-01 -3.826880690672e-01 0.000000000000e+00 9.238772870532e-01 -3.826888533354e-01 0.000000000000e+00 9.238765793365e-01 -3.826905618819e-01 0.000000000000e+00 9.238747644583e-01 -3.826949432605e-01 0.000000000000e+00 9.238695324548e-01 -3.827075737449e-01 0.000000000000e+00 9.238530965244e-01 -3.827472482492e-01 0.000000000000e+00 9.237984217183e-01 -3.828791924755e-01 0.000000000000e+00 9.236109957451e-01 -3.833310951890e-01 0.000000000000e+00 9.228924456725e-01 -3.850578316572e-01 0.000000000000e+00 9.563281858474e-01 -2.922950580386e-01 0.000000000000e+00 9.568257670606e-01 -2.906620915923e-01 0.000000000000e+00 9.569065607051e-01 -2.903959952883e-01 0.000000000000e+00 9.569258291857e-01 -2.903324946285e-01 0.000000000000e+00 9.569321685721e-01 -2.903115994098e-01 0.000000000000e+00 9.569350663636e-01 -2.903020474672e-01 0.000000000000e+00 9.569365843171e-01 -2.902970437250e-01 0.000000000000e+00 9.569373912514e-01 -2.902943837295e-01 0.000000000000e+00 9.569378214012e-01 -2.902929657639e-01 0.000000000000e+00 9.569380638809e-01 -2.902921664391e-01 0.000000000000e+00 9.569382179866e-01 -2.902916584344e-01 0.000000000000e+00 9.569383294332e-01 -2.902912910536e-01 0.000000000000e+00 9.569384146490e-01 -2.902910101417e-01 0.000000000000e+00 9.569384780253e-01 -2.902908012230e-01 0.000000000000e+00 9.569385201087e-01 -2.902906624958e-01 0.000000000000e+00 9.569385425983e-01 -2.902905883589e-01 0.000000000000e+00 9.569385483131e-01 -2.902905695202e-01 0.000000000000e+00 9.569385411390e-01 -2.902905931695e-01 0.000000000000e+00 9.569385210225e-01 -2.902906594832e-01 0.000000000000e+00 9.569384780839e-01 -2.902908010297e-01 0.000000000000e+00 9.569383823617e-01 -2.902911165760e-01 0.000000000000e+00 9.569381699942e-01 -2.902918166401e-01 0.000000000000e+00 9.569377275677e-01 -2.902932750814e-01 0.000000000000e+00 9.569368703412e-01 -2.902961008721e-01 0.000000000000e+00 9.569352961547e-01 -2.903012899958e-01 0.000000000000e+00 9.569323771044e-01 -2.903109120396e-01 0.000000000000e+00 9.569262254635e-01 -2.903311885075e-01 0.000000000000e+00 9.569098450796e-01 -2.903851724688e-01 0.000000000000e+00 9.568566260924e-01 -2.905604878560e-01 0.000000000000e+00 9.566687183308e-01 -2.911785764222e-01 0.000000000000e+00 9.559270360456e-01 -2.936043285735e-01 0.000000000000e+00 9.801877155528e-01 -1.980708011784e-01 0.000000000000e+00 9.806836167242e-01 -1.956007256854e-01 0.000000000000e+00 9.807528167447e-01 -1.952534569410e-01 0.000000000000e+00 9.807633161384e-01 -1.952007113647e-01 0.000000000000e+00 9.807669877117e-01 -1.951822630644e-01 0.000000000000e+00 9.807712131007e-01 -1.951610298009e-01 0.000000000000e+00 9.807756253542e-01 -1.951388549498e-01 0.000000000000e+00 9.807793791080e-01 -1.951199874860e-01 0.000000000000e+00 9.807821337457e-01 -1.951061406651e-01 0.000000000000e+00 9.807839158814e-01 -1.950971818051e-01 0.000000000000e+00 9.807849119004e-01 -1.950921745960e-01 0.000000000000e+00 9.807853426143e-01 -1.950900092597e-01 0.000000000000e+00 9.807854038755e-01 -1.950897012778e-01 0.000000000000e+00 9.807852440820e-01 -1.950905046150e-01 0.000000000000e+00 9.807849592850e-01 -1.950919363798e-01 0.000000000000e+00 9.807845949013e-01 -1.950937682354e-01 0.000000000000e+00 9.807841488194e-01 -1.950960107857e-01 0.000000000000e+00 9.807835752132e-01 -1.950988943894e-01 0.000000000000e+00 9.807827897187e-01 -1.951028431150e-01 0.000000000000e+00 9.807816784501e-01 -1.951084293838e-01 0.000000000000e+00 9.807801169223e-01 -1.951162787925e-01 0.000000000000e+00 9.807780059906e-01 -1.951268893955e-01 0.000000000000e+00 9.807753357251e-01 -1.951403106314e-01 0.000000000000e+00 9.807722786840e-01 -1.951556746931e-01 0.000000000000e+00 9.807692722186e-01 -1.951707833459e-01 0.000000000000e+00 9.807668790410e-01 -1.951828091203e-01 0.000000000000e+00 9.807646404710e-01 -1.951940572912e-01 0.000000000000e+00 9.807562946825e-01 -1.952359865411e-01 0.000000000000e+00 9.807129411790e-01 -1.954536441311e-01 0.000000000000e+00 9.805275134621e-01 -1.963817591932e-01 0.000000000000e+00 9.797653313009e-01 -2.001496829395e-01 0.000000000000e+00 9.944565848269e-01 -1.051479951997e-01 0.000000000000e+00 9.951175324852e-01 -9.869699357450e-02 0.000000000000e+00 9.952511174632e-01 -9.734070673828e-02 0.000000000000e+00 9.952648860737e-01 -9.719982792551e-02 0.000000000000e+00 9.952483893317e-01 -9.736859623418e-02 0.000000000000e+00 9.952275714924e-01 -9.758115054370e-02 0.000000000000e+00 9.952095266015e-01 -9.776501501827e-02 0.000000000000e+00 9.951955750705e-01 -9.790693213490e-02 0.000000000000e+00 9.951853457179e-01 -9.801085485007e-02 0.000000000000e+00 9.951780874879e-01 -9.808452571073e-02 0.000000000000e+00 9.951730803584e-01 -9.813531540719e-02 0.000000000000e+00 9.951697462209e-01 -9.816912043305e-02 0.000000000000e+00 9.951676603124e-01 -9.819026361271e-02 0.000000000000e+00 9.951665353850e-01 -9.820166419073e-02 0.000000000000e+00 9.951662016899e-01 -9.820504576662e-02 0.000000000000e+00 9.951665919416e-01 -9.820109104932e-02 0.000000000000e+00 9.951677326467e-01 -9.818953049467e-02 0.000000000000e+00 9.951697417131e-01 -9.816916613062e-02 0.000000000000e+00 9.951728314380e-01 -9.813783963251e-02 0.000000000000e+00 9.951773142592e-01 -9.809237067072e-02 0.000000000000e+00 9.951836054686e-01 -9.802852343283e-02 0.000000000000e+00 9.951922106243e-01 -9.794112472715e-02 0.000000000000e+00 9.952036700857e-01 -9.782461371244e-02 0.000000000000e+00 9.952183954533e-01 -9.767469145820e-02 0.000000000000e+00 9.952362426901e-01 -9.749267273013e-02 0.000000000000e+00 9.952554396260e-01 -9.729650505004e-02 0.000000000000e+00 9.952698899122e-01 -9.714857813764e-02 0.000000000000e+00 9.952622421788e-01 -9.722689593519e-02 0.000000000000e+00 9.951852831422e-01 -9.801149023031e-02 0.000000000000e+00 0.000000000000e+00 0.000000000000e+00 1.000000000000e+00 0.000000000000e+00 0.000000000000e+00 1.000000000000e+00 9.999715010270e-01 7.549644616428e-03 0.000000000000e+00 9.999961183302e-01 -2.786274327750e-03 0.000000000000e+00 9.999893780102e-01 -4.609106947053e-03 0.000000000000e+00 9.999900185149e-01 -4.467982829681e-03 0.000000000000e+00 9.999926127841e-01 -3.843745208674e-03 0.000000000000e+00 9.999949589453e-01 -3.175229765813e-03 0.000000000000e+00 0.000000000000e+00 0.000000000000e+00 1.000000000000e+00 0.000000000000e+00 0.000000000000e+00 1.000000000000e+00 0.000000000000e+00 0.000000000000e+00 1.000000000000e+00 0.000000000000e+00 0.000000000000e+00 1.000000000000e+00 0.000000000000e+00 0.000000000000e+00 1.000000000000e+00 0.000000000000e+00 0.000000000000e+00 1.000000000000e+00 0.000000000000e+00 0.000000000000e+00 1.000000000000e+00 0.000000000000e+00 0.000000000000e+00 1.000000000000e+00 0.000000000000e+00 0.000000000000e+00 1.000000000000e+00 0.000000000000e+00 0.000000000000e+00 1.000000000000e+00 0.000000000000e+00 0.000000000000e+00 1.000000000000e+00 0.000000000000e+00 0.000000000000e+00 1.000000000000e+00 0.000000000000e+00 0.000000000000e+00 1.000000000000e+00 0.000000000000e+00 0.000000000000e+00 1.000000000000e+00 0.000000000000e+00 0.000000000000e+00 1.000000000000e+00 0.000000000000e+00 0.000000000000e+00 1.000000000000e+00 0.000000000000e+00 0.000000000000e+00 1.000000000000e+00 0.000000000000e+00 0.000000000000e+00 1.000000000000e+00 9.999964983310e-01 -2.646379732587e-03 0.000000000000e+00 9.999949545174e-01 -3.176623960038e-03 0.000000000000e+00 9.999931223927e-01 -3.708795925670e-03 0.000000000000e+00 9.999917594706e-01 -4.059678666447e-03 0.000000000000e+00 9.999930050445e-01 -3.740302412358e-03 0.000000000000e+00 9.999988845754e-01 -1.493602320227e-03 0.000000000000e+00 9.999808566919e-01 6.187588357291e-03 0.000000000000e+00 
        </DataArray>
      </PointData>
      <CellData>
        <DataArray type="Int32" Name="MatGroup" format="ascii">
          0 0 0 0 0 0 0 0 0 0 0 0 0 0 0 0 0 0 0 0 0 0 0 0 0 0 0 0 0 0 0 0 0 0 0 0 0 0 0 0 0 0 0 0 0 0 0 0 0 0 0 0 0 0 0 0 0 0 0 0 0 0 0 0 0 0 0 0 0 0 0 0 0 0 0 0 0 0 0 0 0 0 0 0 0 0 0 0 0 0 0 0 0 0 0 0 0 0 0 0 0 0 0 0 0 0 0 0 0 0 0 0 0 0 0 0 0 0 0 0 0 0 0 0 0 0 0 0 0 0 0 0 0 0 0 0 0 0 0 0 0 0 0 0 0 0 0 0 0 0 0 0 0 0 0 0 0 0 0 0 0 0 0 0 0 0 0 0 0 0 0 0 0 0 0 0 0 0 0 0 0 0 0 0 0 0 0 0 0 0 0 0 0 0 0 0 0 0 0 0 0 0 0 0 0 0 0 0 0 0 0 0 0 0 0 0 0 0 0 0 0 0 0 0 0 0 0 0 0 0 0 0 0 0 0 0 0 0 0 0 0 0 0 0 0 0 0 0 0 0 0 0 0 0 0 0 0 0 0 0 0 0 0 0 0 0 0 0 0 0 0 0 0 0 0 0 0 0 0 0 0 0 0 0 0 0 0 0 0 0 0 0 0 0 0 0 0 0 0 0 0 0 0 0 0 0 0 0 0 0 0 0 0 0 0 0 0 0 0 0 0 0 0 0 0 0 0 0 0 0 0 0 0 0 0 0 0 0 0 0 0 0 0 0 0 0 0 0 0 0 0 0 0 0 0 0 0 0 0 0 0 0 0 0 0 0 0 0 0 0 0 0 0 0 0 0 0 0 0 0 0 0 0 0 0 0 0 0 0 0 0 0 0 0 0 0 0 0 0 0 0 0 0 0 0 0 0 0 0 0 0 0 0 0 0 0 0 0 0 0 0 0 0 0 0 0 0 0 0 0 0 0 0 0 0 0 0 0 0 0 0 0 0 0 0 0 0 0 0 0 0 0 0 0 0 0 0 0 0 0 0 0 0 0 0 0 0 0 0 0 0 0 0 0 0 0 0 0 0 0 
        </DataArray>
      </CellData>
    </Piece>
  </UnstructuredGrid>
</VTKFile>
